LAMMPS data file - Pure SiO2 from sol-gel (pH 6), Vashishta format

409 atoms
2 atom types

0.000000 27.000000 xlo xhi
0.000000 27.000000 ylo yhi
0.000000 27.000000 zlo zhi

Masses

1 28.0855  # Si
2 15.9994  # O

Atoms # charge

1 2 0.0000 1.035831 3.299823 6.160606
2 2 0.0000 4.303655 1.016685 5.765991
3 1 0.0000 1.747085 5.363685 2.164043
4 2 0.0000 3.314707 5.388411 1.820280
5 1 0.0000 0.166495 3.233962 4.741386
6 2 0.0000 0.874739 3.330902 3.089019
7 2 0.0000 0.718361 6.309580 1.352403
8 1 0.0000 0.575115 0.316190 1.461309
9 2 0.0000 0.883941 1.468937 0.324479
10 2 0.0000 13.467092 6.695160 1.068170
11 2 0.0000 9.042604 6.768698 0.082192
12 1 0.0000 13.225626 0.908508 1.092935
13 2 0.0000 12.634089 2.258470 1.741390
14 2 0.0000 11.800756 3.364931 6.496657
15 1 0.0000 10.218642 2.395680 6.361912
16 2 0.0000 10.211030 0.837559 5.761294
17 2 0.0000 8.840461 2.731253 7.257303
18 2 0.0000 11.817487 4.285988 1.914351
19 1 0.0000 12.847203 5.563028 2.449963
20 1 0.0000 12.800572 3.295490 8.720793
21 2 0.0000 4.684069 9.541395 0.574304
22 2 0.0000 5.299514 7.142737 0.953927
23 2 0.0000 4.285656 8.943118 2.969503
24 2 0.0000 3.817609 12.833380 6.982707
25 2 0.0000 5.743150 9.792196 5.118189
26 1 0.0000 5.734472 8.936036 3.603204
27 2 0.0000 6.248803 7.422760 3.850479
28 2 0.0000 10.753062 8.748345 8.078614
29 2 0.0000 8.723333 9.291711 6.191308
30 2 0.0000 13.438133 8.214429 7.240338
31 1 0.0000 12.652817 9.844710 0.417235
32 1 0.0000 9.319315 9.418389 7.729968
33 2 0.0000 10.875348 11.924260 8.161923
34 2 0.0000 5.657882 3.702877 15.463887
35 2 0.0000 2.787751 2.326080 14.735831
36 1 0.0000 1.568249 1.123654 14.869250
37 1 0.0000 5.934268 5.249792 15.011492
38 2 0.0000 1.411111 0.974274 16.821519
39 2 0.0000 0.667690 1.416122 13.560592
40 1 0.0000 2.056242 6.313173 17.119505
41 2 0.0000 3.788027 6.390332 17.221616
42 2 0.0000 4.845560 6.546235 15.274213
43 2 0.0000 13.434626 7.210164 10.040861
44 1 0.0000 13.463278 1.876923 14.410620
45 2 0.0000 7.090035 5.877254 13.695691
46 2 0.0000 8.500058 2.757905 10.136830
47 2 0.0000 11.550249 3.176720 9.842494
48 2 0.0000 9.371696 1.293422 11.539944
49 2 0.0000 11.965597 1.258338 14.459529
50 1 0.0000 10.518932 13.201176 16.033024
51 2 0.0000 6.035885 13.023280 11.157793
52 2 0.0000 1.577246 7.816578 16.530217
53 2 0.0000 10.127375 13.259921 17.640436
54 2 0.0000 9.056648 8.029149 17.825017
55 2 0.0000 7.565157 8.795790 15.693688
56 2 0.0000 7.971589 13.211598 13.276387
57 2 0.0000 13.179033 10.446582 12.240575
58 2 0.0000 10.000478 12.417514 11.242005
59 2 0.0000 9.409479 12.242454 15.275092
60 1 0.0000 8.335568 7.594546 14.759466
61 1 0.0000 9.883357 12.455289 9.541169
62 1 0.0000 12.749744 9.997198 17.552439
63 2 0.0000 10.033797 7.603895 14.704366
64 2 0.0000 11.513057 7.063422 17.692307
65 2 0.0000 12.115827 12.856552 16.433703
66 2 0.0000 8.384160 11.176440 9.036256
67 2 0.0000 4.305207 5.499350 21.184102
68 1 0.0000 5.529009 5.182050 20.009784
69 1 0.0000 1.361102 5.450087 20.136001
70 2 0.0000 1.490008 6.240268 18.707466
71 2 0.0000 5.433166 5.116422 18.286516
72 2 0.0000 1.478451 1.605546 22.072131
73 2 0.0000 1.984450 6.098785 21.537205
74 2 0.0000 0.244957 4.272700 19.916455
75 2 0.0000 3.889286 0.359393 21.976328
76 1 0.0000 2.281668 0.330804 21.452656
77 2 0.0000 2.164628 0.377636 19.795929
78 2 0.0000 6.516969 2.931059 20.164239
79 2 0.0000 11.291282 5.586771 25.955070
80 1 0.0000 8.319965 3.157035 19.709879
81 2 0.0000 8.636247 4.832776 19.507276
82 2 0.0000 9.109811 1.892222 18.902631
83 2 0.0000 11.950130 3.768914 22.317619
84 1 0.0000 12.861913 5.357428 26.195667
85 2 0.0000 12.436413 1.462765 22.644280
86 2 0.0000 13.274482 3.852734 26.613035
87 1 0.0000 13.337337 2.895177 22.385978
88 2 0.0000 13.467722 0.855282 26.214739
89 2 0.0000 0.436961 10.858859 26.047865
90 1 0.0000 0.051604 9.261704 25.681600
91 1 0.0000 5.293440 8.274674 26.694833
92 1 0.0000 10.275425 7.457685 18.768734
93 2 0.0000 10.749825 8.541618 19.799978
94 2 0.0000 6.845098 8.727021 26.379236
95 1 0.0000 8.462209 8.172757 26.213063
96 2 0.0000 8.598505 8.541465 24.499313
97 2 0.0000 12.993582 11.162594 26.418443
98 2 0.0000 11.908710 11.338569 18.001511
99 2 0.0000 11.520670 8.710405 26.981467
100 2 0.0000 5.291489 15.870731 2.995577
101 1 0.0000 5.857622 17.051722 4.020054
102 2 0.0000 4.551272 18.075485 4.141612
103 1 0.0000 1.451397 16.817814 1.720757
104 2 0.0000 3.105493 17.094458 1.673104
105 2 0.0000 0.604400 18.129085 1.244550
106 2 0.0000 3.888728 20.249480 6.341726
107 2 0.0000 6.628229 18.244843 8.878868
108 2 0.0000 13.412711 13.855130 3.181765
109 2 0.0000 7.414660 17.468288 4.449296
110 2 0.0000 11.512886 13.611056 5.560294
111 2 0.0000 11.920491 17.613398 1.510842
112 1 0.0000 12.573571 14.402560 4.516383
113 2 0.0000 12.768933 16.053881 4.881612
114 1 0.0000 7.168026 19.812289 8.586494
115 2 0.0000 12.516809 18.198662 0.413938
116 2 0.0000 9.393539 14.110486 8.969623
117 2 0.0000 1.153243 25.812872 0.885276
118 2 0.0000 4.833000 22.729023 7.768019
119 2 0.0000 0.778839 22.287212 2.769663
120 2 0.0000 0.585344 24.820866 8.662470
121 1 0.0000 5.060030 21.368560 6.535419
122 1 0.0000 1.316853 23.795210 3.293573
123 2 0.0000 2.840991 24.158971 2.850144
124 2 0.0000 6.485681 24.394152 0.883399
125 2 0.0000 6.389970 20.670706 7.265822
126 1 0.0000 11.098821 24.757077 0.335748
127 2 0.0000 12.420831 26.478871 1.479047
128 2 0.0000 9.475761 25.129507 0.166727
129 2 0.0000 11.127324 23.204351 0.970127
130 2 0.0000 8.693315 22.419774 6.792001
131 1 0.0000 9.657192 21.442496 5.824389
132 2 0.0000 10.887753 20.736814 6.624419
133 2 0.0000 9.603509 21.082713 4.192542
134 1 0.0000 2.391268 15.956140 12.351628
135 2 0.0000 4.027160 15.963880 12.454790
136 2 0.0000 2.154949 15.888469 10.720250
137 2 0.0000 1.809619 14.569935 12.987467
138 2 0.0000 6.654143 17.737557 12.061332
139 2 0.0000 6.150403 14.952204 13.552864
140 1 0.0000 6.501692 13.612370 12.674543
141 2 0.0000 6.363543 15.358428 9.446079
142 2 0.0000 6.930541 18.713155 14.829660
143 1 0.0000 7.109961 18.844719 13.233623
144 2 0.0000 13.109166 17.594008 17.246437
145 2 0.0000 7.951196 16.174126 11.451852
146 2 0.0000 10.065970 14.738466 15.603045
147 2 0.0000 10.360160 19.201343 13.206458
148 2 0.0000 11.509641 19.313305 15.793002
149 1 0.0000 12.488273 17.956635 15.715556
150 1 0.0000 7.848840 15.639945 9.930056
151 2 0.0000 12.640865 16.988640 14.361655
152 2 0.0000 8.412687 17.076300 9.319223
153 2 0.0000 8.281778 19.945020 12.724835
154 2 0.0000 8.639022 20.074497 9.450421
155 2 0.0000 0.573408 20.319691 14.494501
156 1 0.0000 0.408987 21.842078 15.281059
157 2 0.0000 2.186861 26.293835 14.434542
158 2 0.0000 1.641367 22.555257 16.042659
159 2 0.0000 10.795017 24.707317 17.885044
160 2 0.0000 9.184999 25.259675 15.188257
161 1 0.0000 9.220725 25.047105 16.826309
162 2 0.0000 13.255422 22.455837 15.509520
163 2 0.0000 8.219591 26.021257 17.774165
164 1 0.0000 5.870533 18.907980 24.316926
165 2 0.0000 5.753807 17.753997 25.506128
166 2 0.0000 4.479416 19.858677 24.034895
167 2 0.0000 1.748784 19.933185 22.497366
168 2 0.0000 7.048774 17.914695 20.550999
169 2 0.0000 7.433817 19.438954 24.221519
170 2 0.0000 8.614176 14.639500 21.497854
171 2 0.0000 11.411481 18.109886 24.241430
172 2 0.0000 9.319752 17.705685 19.239137
173 1 0.0000 8.585715 18.559382 20.514038
174 1 0.0000 12.122709 16.993503 25.320421
175 2 0.0000 11.140034 15.774696 25.584525
176 2 0.0000 12.876381 14.252796 19.720620
177 2 0.0000 8.455295 20.317201 20.380251
178 1 0.0000 0.165656 20.293015 22.032195
179 2 0.0000 2.480684 21.760562 19.390084
180 1 0.0000 3.518647 21.751480 20.682522
181 2 0.0000 2.919843 21.738092 22.201370
182 2 0.0000 4.519533 25.648698 24.423642
183 2 0.0000 5.055448 23.001439 23.257574
184 1 0.0000 5.580535 24.892128 22.922932
185 2 0.0000 4.733126 25.393638 21.527401
186 2 0.0000 5.154946 22.212593 20.386804
187 2 0.0000 1.087738 23.852302 25.633702
188 2 0.0000 0.228504 21.820894 21.451970
189 2 0.0000 9.799140 22.748113 20.323070
190 2 0.0000 6.843423 25.913990 23.053853
191 2 0.0000 9.212674 20.341973 26.112206
192 1 0.0000 11.238138 21.918230 20.124288
193 2 0.0000 12.059393 24.978392 25.124971
194 2 0.0000 7.530442 21.868037 24.883636
195 2 0.0000 12.038506 20.734981 21.049193
196 2 0.0000 12.116091 22.381146 18.638315
197 1 0.0000 8.563157 20.606908 24.676214
198 2 0.0000 10.385569 20.481036 23.257490
199 2 0.0000 15.000115 0.880616 1.452733
200 2 0.0000 15.109707 3.809651 0.841609
201 1 0.0000 16.154802 5.120949 0.443390
202 2 0.0000 19.679050 0.617543 7.098046
203 2 0.0000 15.960826 6.699763 0.926411
204 2 0.0000 13.800933 5.043283 3.616315
205 2 0.0000 20.047947 6.450227 2.256429
206 1 0.0000 20.635763 1.693575 7.910162
207 2 0.0000 24.032845 1.264722 6.193932
208 2 0.0000 21.085525 3.028498 6.737986
209 1 0.0000 23.467215 2.808602 6.153456
210 2 0.0000 24.191483 3.884642 5.143888
211 2 0.0000 24.467378 3.426481 7.421191
212 2 0.0000 25.923049 5.055121 7.056845
213 1 0.0000 25.199675 6.536797 7.451977
214 2 0.0000 26.264630 1.811161 4.642366
215 2 0.0000 22.068383 1.191688 8.553334
216 2 0.0000 22.916903 6.530203 1.573264
217 2 0.0000 24.225153 6.548182 8.817889
218 2 0.0000 26.719863 1.968145 8.179376
219 2 0.0000 16.412845 6.945805 3.093508
220 2 0.0000 18.510396 7.977769 2.140839
221 2 0.0000 15.014153 11.005890 7.422053
222 2 0.0000 17.171300 8.260309 4.941773
223 1 0.0000 17.356135 8.263346 3.331731
224 2 0.0000 19.042696 8.870302 7.321778
225 2 0.0000 17.158027 10.345470 5.709655
226 1 0.0000 16.648343 10.962054 7.192639
227 2 0.0000 16.389165 9.415562 2.657473
228 2 0.0000 13.713501 9.489608 1.697556
229 1 0.0000 18.950328 9.204141 8.899200
230 2 0.0000 26.406566 7.464102 7.880289
231 2 0.0000 24.625038 10.761701 2.923990
232 2 0.0000 26.241154 8.755051 0.053532
233 1 0.0000 23.125642 12.288880 4.110444
234 2 0.0000 21.105186 7.795847 0.552840
235 2 0.0000 23.376385 10.175526 5.595534
236 1 0.0000 23.161103 8.707498 4.998194
237 2 0.0000 21.572829 12.253396 3.621635
238 2 0.0000 23.965725 7.279295 5.503689
239 2 0.0000 21.872859 8.419960 3.934979
240 2 0.0000 23.389894 12.987740 5.627270
241 1 0.0000 21.508448 7.222707 1.984530
242 2 0.0000 23.990230 10.491111 1.728923
243 2 0.0000 18.431551 4.824633 12.781785
244 2 0.0000 16.579136 4.124309 13.712167
245 1 0.0000 18.616569 5.151641 11.153532
246 1 0.0000 15.650656 4.877991 14.804105
247 2 0.0000 16.364519 4.848522 16.318359
248 2 0.0000 17.924404 3.725261 10.553456
249 2 0.0000 18.841016 4.408359 16.503890
250 2 0.0000 15.570436 6.578451 14.452743
251 2 0.0000 13.692710 3.518502 14.629835
252 2 0.0000 14.753347 1.160824 13.674994
253 2 0.0000 15.282629 5.682047 11.701142
254 2 0.0000 18.785252 6.443509 14.979254
255 1 0.0000 19.861679 5.379354 15.664255
256 2 0.0000 17.851122 6.562351 10.822797
257 2 0.0000 13.519367 4.650837 9.151616
258 2 0.0000 13.853882 2.098916 9.160890
259 2 0.0000 20.344718 4.021946 14.725583
260 2 0.0000 21.608497 1.337569 12.492198
261 2 0.0000 20.914347 5.548670 10.883985
262 1 0.0000 23.087113 5.145825 16.167152
263 2 0.0000 23.038160 4.684225 14.597537
264 1 0.0000 25.948981 1.102593 9.336644
265 2 0.0000 21.713905 6.428348 16.708795
266 2 0.0000 23.437953 4.671716 17.792409
267 2 0.0000 26.935011 0.834847 11.044421
268 2 0.0000 16.990344 6.892626 16.855602
269 1 0.0000 14.209270 6.894144 11.484400
270 2 0.0000 13.587569 7.606658 12.928552
271 2 0.0000 15.182585 12.222049 14.395352
272 2 0.0000 14.961704 9.179347 13.467927
273 2 0.0000 17.316694 7.384666 12.805595
274 2 0.0000 14.365295 10.220356 17.588184
275 2 0.0000 15.775276 10.694217 11.554327
276 1 0.0000 14.717499 10.584173 12.722019
277 2 0.0000 18.008263 10.653477 9.262711
278 2 0.0000 17.605961 8.257495 9.137614
279 1 0.0000 26.492811 12.487045 12.269050
280 2 0.0000 20.546225 8.307430 10.506853
281 2 0.0000 26.511269 12.098254 14.003469
282 1 0.0000 21.645622 7.103947 10.823125
283 2 0.0000 22.798719 7.115070 11.977984
284 2 0.0000 25.586761 11.671780 11.124232
285 2 0.0000 18.841626 10.404415 17.932798
286 2 0.0000 14.334423 3.429534 21.118965
287 2 0.0000 18.141937 3.995053 20.847766
288 1 0.0000 18.628128 4.772315 19.552162
289 2 0.0000 17.292186 4.745148 26.378027
290 2 0.0000 18.887058 6.380395 19.629868
291 2 0.0000 17.671616 4.715461 18.308392
292 2 0.0000 19.909378 3.939855 19.153802
293 2 0.0000 13.522472 5.299701 24.688282
294 1 0.0000 15.360387 6.350532 20.743615
295 2 0.0000 14.670042 6.645498 22.220972
296 2 0.0000 24.791590 3.498787 24.273940
297 1 0.0000 25.519575 2.801370 25.546576
298 2 0.0000 25.079822 1.205749 26.112861
299 2 0.0000 14.099896 6.609098 19.665182
300 2 0.0000 16.827278 7.191345 20.738411
301 1 0.0000 17.914158 9.664366 19.152974
302 2 0.0000 16.677586 8.506247 18.996372
303 2 0.0000 17.935258 9.907821 20.880420
304 2 0.0000 18.394819 8.638847 23.951395
305 1 0.0000 19.175781 8.713753 22.485528
306 2 0.0000 22.522060 12.061166 26.940805
307 2 0.0000 25.982473 9.220939 24.452305
308 2 0.0000 24.683970 10.428538 19.568828
309 1 0.0000 24.507122 12.778184 24.599204
310 2 0.0000 23.857298 10.586932 25.042603
311 2 0.0000 23.784840 13.062064 20.606536
312 2 0.0000 22.699054 9.137171 26.855782
313 1 0.0000 22.212233 10.533587 26.037435
314 2 0.0000 25.824153 13.230012 25.472941
315 1 0.0000 24.841365 12.098908 19.770767
316 2 0.0000 25.045608 12.747727 23.039524
317 2 0.0000 20.568387 10.825509 25.789125
318 2 0.0000 20.806785 8.392384 22.462946
319 2 0.0000 15.734872 17.491030 2.782510
320 2 0.0000 16.499748 19.273717 5.081453
321 1 0.0000 15.435834 14.539634 0.650469
322 2 0.0000 14.343744 15.616962 1.239728
323 2 0.0000 19.259421 14.464116 5.179566
324 2 0.0000 16.974840 15.096566 0.420832
325 1 0.0000 18.618354 13.728999 3.870448
326 2 0.0000 17.056859 13.965158 3.276894
327 1 0.0000 24.524023 21.643933 8.864430
328 2 0.0000 20.516730 14.114588 1.379554
329 1 0.0000 23.399140 18.849031 0.435580
330 2 0.0000 24.388698 17.706496 1.073770
331 2 0.0000 22.011328 18.069473 0.932132
332 2 0.0000 22.530544 21.039088 0.954798
333 2 0.0000 20.665237 22.638337 6.162608
334 2 0.0000 22.315870 25.881692 6.511648
335 2 0.0000 23.504247 22.460703 6.887136
336 2 0.0000 24.625742 22.819482 2.050767
337 2 0.0000 22.487085 21.176960 4.448277
338 1 0.0000 23.238969 21.949475 2.335710
339 1 0.0000 22.181351 21.951799 5.933729
340 2 0.0000 17.752632 19.140496 16.137989
341 2 0.0000 19.030359 19.814199 13.926738
342 2 0.0000 14.173969 19.005459 15.520163
343 2 0.0000 25.479062 13.706054 16.445090
344 1 0.0000 26.488253 14.216290 15.212266
345 2 0.0000 21.052908 19.132409 14.475774
346 1 0.0000 21.757421 19.839875 15.832904
347 2 0.0000 23.253864 19.077838 15.854496
348 2 0.0000 26.476184 15.787026 14.585614
349 2 0.0000 26.908773 14.126266 11.991523
350 1 0.0000 18.250293 20.356492 15.266302
351 1 0.0000 13.593546 22.277787 17.839109
352 2 0.0000 18.870130 21.765239 15.943712
353 2 0.0000 16.666800 25.403806 12.855561
354 1 0.0000 15.249263 26.201041 12.437782
355 2 0.0000 15.681995 25.356143 16.564930
356 2 0.0000 14.121387 23.212662 10.490595
357 2 0.0000 14.235330 24.797089 12.693255
358 1 0.0000 16.218936 24.295868 17.788669
359 2 0.0000 26.070322 21.795099 9.568931
360 2 0.0000 24.329246 23.194916 16.962012
361 2 0.0000 24.888579 26.887257 9.025202
362 2 0.0000 23.373309 21.383671 9.948863
363 1 0.0000 25.369009 22.183325 17.768483
364 2 0.0000 26.159032 21.680556 16.311371
365 2 0.0000 21.008928 21.597953 16.341835
366 2 0.0000 16.510606 26.981667 11.141988
367 2 0.0000 15.651011 14.130580 20.037064
368 1 0.0000 14.303446 15.134864 19.842208
369 2 0.0000 19.451149 19.809207 19.437366
370 2 0.0000 19.711700 13.808053 25.823129
371 2 0.0000 20.122036 19.103794 24.519449
372 1 0.0000 23.714782 17.284401 23.052548
373 2 0.0000 22.285145 18.117130 23.019129
374 2 0.0000 24.073304 15.857690 22.347556
375 2 0.0000 23.358057 17.054009 24.703823
376 2 0.0000 23.424458 13.978137 24.664789
377 2 0.0000 24.960058 18.359923 23.243287
378 2 0.0000 22.003794 19.617939 19.072241
379 2 0.0000 23.692457 18.902650 25.786878
380 2 0.0000 21.691601 15.376196 26.501353
381 2 0.0000 21.175917 20.047466 21.402751
382 2 0.0000 26.578147 19.408560 20.776545
383 2 0.0000 22.202172 20.261908 23.554069
384 1 0.0000 21.012163 13.857426 26.855358
385 2 0.0000 17.148786 21.049263 20.608720
386 2 0.0000 14.867431 23.302058 18.264105
387 2 0.0000 15.629266 20.817671 23.008200
388 2 0.0000 14.277604 23.735288 22.610987
389 1 0.0000 15.218670 25.013393 23.286440
390 2 0.0000 16.803946 24.754700 23.009278
391 2 0.0000 17.462662 22.702373 22.825223
392 1 0.0000 16.501116 21.806528 21.919296
393 2 0.0000 14.450106 26.289854 23.940392
394 2 0.0000 17.708895 24.293252 18.503266
395 2 0.0000 14.400061 20.905977 18.125241
396 2 0.0000 24.422290 20.989365 18.206269
397 2 0.0000 21.085309 21.994175 19.635879
398 1 0.0000 24.181465 23.225125 20.709877
399 1 0.0000 20.841944 20.448544 19.896134
400 1 0.0000 24.485261 26.770698 25.649361
401 1 0.0000 20.858604 20.597864 24.524941
402 2 0.0000 24.619663 23.027142 25.008407
403 2 0.0000 24.872867 24.770023 22.341791
404 2 0.0000 23.616929 26.636259 24.227470
405 2 0.0000 24.136916 25.484374 26.708395
406 2 0.0000 26.248794 25.035929 22.489802
407 2 0.0000 23.744017 21.736613 21.177832
408 2 0.0000 26.005480 23.082599 19.158355
409 2 0.0000 22.695065 23.856509 20.406134
