LAMMPS data file - Pure SiO2 from sol-gel (pH 6), Vashishta format

398 atoms
2 atom types

0.000000 27.000000 xlo xhi
0.000000 27.000000 ylo yhi
0.000000 27.000000 zlo zhi

Masses

1 28.0855  # Si
2 15.9994  # O

Atoms # charge

1 2 0.0000 5.811567 2.947962 0.632144
2 2 0.0000 2.408386 5.063271 2.770878
3 2 0.0000 3.250109 3.562991 1.435159
4 1 0.0000 0.968833 4.475717 6.173866
5 2 0.0000 5.775401 1.721036 5.413809
6 2 0.0000 2.574854 4.768360 6.219724
7 1 0.0000 4.416645 3.730873 0.270608
8 2 0.0000 0.820048 3.166777 7.218607
9 2 0.0000 1.887384 0.081706 1.986723
10 2 0.0000 0.582830 3.810107 4.687614
11 2 0.0000 7.172208 4.212957 3.277911
12 1 0.0000 7.712718 2.653896 3.084726
13 2 0.0000 7.699726 1.794894 6.486888
14 2 0.0000 8.195946 1.578184 4.164473
15 2 0.0000 12.306719 2.354053 2.465804
16 1 0.0000 8.798162 0.920567 5.543512
17 2 0.0000 10.519284 1.388569 5.107572
18 1 0.0000 10.965738 2.861682 3.250459
19 2 0.0000 11.137020 4.431770 3.775250
20 2 0.0000 9.035949 2.662369 1.827559
21 2 0.0000 11.830364 4.937763 8.365770
22 1 0.0000 11.996324 6.348461 7.532753
23 2 0.0000 11.680428 6.442955 5.886540
24 2 0.0000 13.470107 6.936695 7.748881
25 2 0.0000 12.189619 10.643934 3.764267
26 2 0.0000 9.735516 9.520520 2.788732
27 2 0.0000 12.110622 13.355592 3.046643
28 1 0.0000 12.575608 9.601435 5.023296
29 2 0.0000 9.188739 6.813859 3.001276
30 2 0.0000 11.340080 8.573932 5.456917
31 2 0.0000 9.567303 8.881867 7.757884
32 1 0.0000 8.513932 8.334015 2.926350
33 2 0.0000 7.863217 8.650865 1.472031
34 2 0.0000 5.209742 1.862945 17.705854
35 2 0.0000 2.768856 2.963274 15.723668
36 1 0.0000 2.937539 3.913265 14.406476
37 2 0.0000 3.073785 5.534130 14.942679
38 2 0.0000 2.784541 3.354889 12.914498
39 2 0.0000 4.868475 0.641219 15.953662
40 1 0.0000 6.207938 0.454824 14.983530
41 2 0.0000 7.758924 1.991258 12.019602
42 2 0.0000 9.844053 1.932620 9.925848
43 1 0.0000 9.160542 1.461828 11.358705
44 2 0.0000 10.824533 5.107000 15.988998
45 2 0.0000 11.904193 5.745819 12.347342
46 1 0.0000 10.908767 6.442403 17.026063
47 2 0.0000 10.218008 0.498402 12.218478
48 2 0.0000 7.403008 6.074144 10.110094
49 1 0.0000 6.084328 6.803746 10.746921
50 2 0.0000 5.380140 7.006860 16.297064
51 1 0.0000 6.446898 7.276557 17.540942
52 2 0.0000 2.654705 8.278603 17.744907
53 2 0.0000 1.008738 9.767883 10.241764
54 2 0.0000 3.451870 10.016504 12.506097
55 1 0.0000 3.043125 9.284912 16.510799
56 2 0.0000 1.469991 8.659068 13.426772
57 1 0.0000 2.287248 8.965606 12.046777
58 2 0.0000 2.932189 7.533685 11.664341
59 2 0.0000 2.244956 10.664852 16.653603
60 2 0.0000 2.956326 8.482147 15.072947
61 2 0.0000 4.553571 9.656820 16.862997
62 2 0.0000 2.031805 13.147820 10.619809
63 2 0.0000 6.671176 7.949747 11.684625
64 2 0.0000 5.430918 7.393873 9.358541
65 1 0.0000 9.163670 9.740733 9.113172
66 2 0.0000 12.111453 10.843610 10.500709
67 2 0.0000 9.305330 8.748264 10.811571
68 2 0.0000 10.866517 7.738959 15.995547
69 1 0.0000 13.396274 6.300754 12.879635
70 2 0.0000 0.209094 0.440107 13.633204
71 2 0.0000 9.099416 11.406797 9.078625
72 2 0.0000 4.149826 2.690830 20.057253
73 1 0.0000 3.843731 1.937000 18.627754
74 2 0.0000 4.356468 4.489555 25.804164
75 2 0.0000 2.489135 0.958630 18.291877
76 2 0.0000 5.853344 0.035418 24.900142
77 2 0.0000 6.241860 5.944079 18.481339
78 2 0.0000 8.946549 2.901908 21.920939
79 2 0.0000 9.446147 4.158004 22.262789
80 2 0.0000 7.505582 5.511469 24.437084
81 2 0.0000 9.669882 4.462914 25.972547
82 1 0.0000 9.014543 4.903823 24.503528
83 2 0.0000 12.437339 1.688615 18.982621
84 2 0.0000 13.265251 0.252541 21.072699
85 2 0.0000 9.591810 13.215175 21.751339
86 2 0.0000 0.848616 11.061078 24.347612
87 2 0.0000 1.613238 7.650107 21.485248
88 1 0.0000 2.086818 9.110117 20.800940
89 2 0.0000 3.106918 10.330545 21.345958
90 2 0.0000 1.610399 9.432686 19.248304
91 2 0.0000 5.680884 8.466350 18.336132
92 2 0.0000 13.117145 7.725706 20.158970
93 2 0.0000 12.321821 10.293022 19.997262
94 2 0.0000 11.118532 9.000831 21.913138
95 1 0.0000 10.071309 13.155795 20.204734
96 1 0.0000 11.932511 8.763477 20.519762
97 2 0.0000 9.649471 6.510460 18.030118
98 2 0.0000 3.695054 15.787337 3.996582
99 2 0.0000 3.675424 16.778662 7.707680
100 1 0.0000 5.149396 15.843781 3.008640
101 2 0.0000 5.207286 15.635695 1.395294
102 1 0.0000 5.090550 17.659339 8.114122
103 2 0.0000 5.135290 19.106602 7.443937
104 2 0.0000 5.281920 17.565513 2.957285
105 2 0.0000 5.619501 18.174486 5.112219
106 2 0.0000 6.494767 16.811086 7.682768
107 2 0.0000 0.420909 17.539915 5.989092
108 2 0.0000 3.120792 19.969979 0.022449
109 2 0.0000 6.921807 19.829311 6.343025
110 1 0.0000 7.152695 18.685597 5.195952
111 2 0.0000 7.673499 19.100068 3.699813
112 2 0.0000 8.299160 17.689046 5.683554
113 2 0.0000 10.264724 14.871459 1.245880
114 1 0.0000 11.730653 14.542545 1.865331
115 2 0.0000 12.672982 15.932394 1.709564
116 2 0.0000 13.197508 17.778052 6.998859
117 2 0.0000 13.403618 19.140905 0.965671
118 2 0.0000 13.381794 15.567243 6.850031
119 1 0.0000 0.024311 15.123116 1.436052
120 2 0.0000 13.079894 20.681130 3.182328
121 2 0.0000 0.159678 21.076884 5.818313
122 2 0.0000 3.816530 24.649962 1.739254
123 1 0.0000 1.085045 22.423627 5.821921
124 2 0.0000 2.545590 22.521014 5.083484
125 2 0.0000 5.358014 24.865197 6.658349
126 1 0.0000 3.643692 25.091612 0.157620
127 2 0.0000 6.244033 26.751441 8.095982
128 2 0.0000 0.197934 23.639564 6.534615
129 2 0.0000 8.541510 20.150349 0.405546
130 1 0.0000 6.752618 25.572947 7.161795
131 2 0.0000 8.394081 24.138594 8.193861
132 2 0.0000 10.303285 25.619876 2.133159
133 2 0.0000 12.554550 23.868002 1.201528
134 1 0.0000 13.241989 20.787050 1.494405
135 2 0.0000 8.420723 26.182268 5.484176
136 2 0.0000 9.173528 23.283103 0.714783
137 2 0.0000 2.276154 15.736600 11.575776
138 1 0.0000 2.668951 14.215052 11.998045
139 2 0.0000 1.758151 13.943377 13.403603
140 1 0.0000 0.069175 25.887420 13.280721
141 2 0.0000 13.103615 19.836664 9.941414
142 2 0.0000 7.286061 16.208666 16.609254
143 2 0.0000 11.675759 14.577031 17.119269
144 2 0.0000 1.817482 20.498955 11.788829
145 2 0.0000 0.605748 21.716413 9.527100
146 2 0.0000 0.197658 22.779337 12.033492
147 2 0.0000 2.468922 26.466407 10.026526
148 2 0.0000 0.563075 24.955280 16.684064
149 1 0.0000 1.326265 22.139317 10.982704
150 1 0.0000 3.077274 25.331552 10.996345
151 2 0.0000 4.532639 26.064320 11.189588
152 2 0.0000 2.706015 23.040947 10.750680
153 2 0.0000 1.562100 25.290956 12.913087
154 2 0.0000 6.589291 23.434784 10.558528
155 2 0.0000 5.708866 26.359332 13.831927
156 2 0.0000 9.376005 22.704423 16.469491
157 2 0.0000 6.865075 24.604115 13.151093
158 2 0.0000 10.064465 25.034345 15.202696
159 1 0.0000 8.854556 24.195342 16.050478
160 2 0.0000 11.917372 22.826432 16.953710
161 2 0.0000 7.279234 24.788022 16.197434
162 1 0.0000 7.731307 22.882962 9.432998
163 2 0.0000 8.514071 21.476980 9.773860
164 1 0.0000 6.325270 16.569339 23.063228
165 2 0.0000 6.032524 17.703106 24.347490
166 1 0.0000 5.831519 16.921710 19.619835
167 2 0.0000 1.947585 17.255014 21.962081
168 2 0.0000 5.113287 15.429182 19.590180
169 1 0.0000 2.496643 18.638389 26.273371
170 2 0.0000 3.296205 17.241516 26.003110
171 2 0.0000 0.431619 18.656820 23.505700
172 1 0.0000 0.558885 18.114952 21.982629
173 2 0.0000 6.503931 17.522142 18.195720
174 2 0.0000 6.989029 17.347087 20.903055
175 2 0.0000 7.259836 22.987402 22.937838
176 2 0.0000 6.720306 15.034390 23.557357
177 1 0.0000 7.508110 19.721475 26.140432
178 2 0.0000 7.937471 18.488309 25.062367
179 1 0.0000 12.030659 15.135635 18.636657
180 2 0.0000 11.380577 14.042786 19.744452
181 2 0.0000 6.009374 20.397798 25.641204
182 2 0.0000 5.115768 24.821682 26.251557
183 2 0.0000 0.810475 21.558761 23.714896
184 2 0.0000 0.647594 23.034087 22.164493
185 1 0.0000 6.365997 25.775096 25.842351
186 2 0.0000 13.278625 25.011646 21.175027
187 2 0.0000 9.167154 21.764379 21.660465
188 1 0.0000 11.625975 22.333639 18.544907
189 2 0.0000 10.308576 24.818717 25.947546
190 2 0.0000 8.995345 24.660406 21.648912
191 1 0.0000 8.827862 23.163631 22.467098
192 2 0.0000 10.876482 22.302265 25.829500
193 2 0.0000 12.504330 22.104507 19.921244
194 1 0.0000 10.602448 23.531363 26.844537
195 2 0.0000 9.980778 22.384541 18.575665
196 2 0.0000 7.935033 25.356710 25.941228
197 1 0.0000 16.357311 3.237422 2.104430
198 2 0.0000 14.521721 4.617808 2.168012
199 1 0.0000 15.104374 5.423296 0.355803
200 2 0.0000 17.571179 3.090134 3.257874
201 2 0.0000 14.497462 1.984899 5.659715
202 1 0.0000 15.758906 3.010495 5.986102
203 2 0.0000 17.274775 2.323590 5.697203
204 2 0.0000 16.168411 1.673498 1.743510
205 2 0.0000 16.912515 4.818310 0.417575
206 2 0.0000 21.626307 2.156054 0.022368
207 2 0.0000 14.366408 6.952664 0.137758
208 2 0.0000 23.130037 0.017718 0.325614
209 2 0.0000 20.807933 2.119076 7.227926
210 2 0.0000 20.705676 1.753775 2.796671
211 2 0.0000 25.378312 0.722232 1.974516
212 1 0.0000 21.983676 2.116314 8.449917
213 2 0.0000 22.629352 0.664400 8.668308
214 2 0.0000 17.127681 12.788634 3.740718
215 2 0.0000 14.013648 8.799136 4.703290
216 1 0.0000 17.308469 11.335645 2.887854
217 2 0.0000 16.868411 9.989701 3.668769
218 1 0.0000 19.017698 8.935610 7.754700
219 2 0.0000 18.722686 10.018115 6.548518
220 2 0.0000 14.242438 9.647817 8.935572
221 2 0.0000 20.509723 8.251988 7.780517
222 1 0.0000 25.483211 9.879595 5.640219
223 2 0.0000 24.718301 8.495916 5.319530
224 2 0.0000 26.652606 10.239549 7.695618
225 2 0.0000 26.854130 9.552298 4.647719
226 2 0.0000 17.982551 8.753345 8.965937
227 2 0.0000 16.314655 4.870331 12.006657
228 2 0.0000 16.831882 2.877340 14.045264
229 2 0.0000 19.416866 3.557909 12.005606
230 1 0.0000 15.380064 2.369687 14.771312
231 2 0.0000 14.409765 5.655144 16.590191
232 2 0.0000 14.490697 5.863000 14.024652
233 2 0.0000 17.926834 6.124239 11.198190
234 2 0.0000 14.455103 3.701545 15.134472
235 2 0.0000 16.944262 6.033935 17.575382
236 2 0.0000 19.884743 4.711301 17.002687
237 1 0.0000 15.341930 6.081721 17.870289
238 1 0.0000 26.895363 9.273269 9.092800
239 2 0.0000 25.848868 4.984641 16.449097
240 1 0.0000 25.477363 3.636018 17.323827
241 2 0.0000 22.131343 3.651402 9.449790
242 1 0.0000 24.355396 3.999381 10.326921
243 2 0.0000 25.183096 5.244310 9.795926
244 2 0.0000 25.434686 2.727923 10.126118
245 2 0.0000 24.520792 4.375102 11.926679
246 2 0.0000 24.080399 2.383844 16.657149
247 1 0.0000 13.649072 10.301653 10.326849
248 2 0.0000 19.634895 7.070706 12.834414
249 2 0.0000 14.018059 8.386938 16.292127
250 2 0.0000 18.629836 9.496248 17.261459
251 2 0.0000 14.349510 6.923033 11.517645
252 1 0.0000 18.133656 7.370083 12.215300
253 2 0.0000 14.235319 10.408141 11.940309
254 1 0.0000 17.853029 12.320642 14.243640
255 2 0.0000 16.220590 8.207436 14.691217
256 1 0.0000 15.209985 9.228810 15.455017
257 2 0.0000 14.888385 10.651444 14.637647
258 2 0.0000 15.947483 9.651618 16.828251
259 2 0.0000 16.770477 11.200179 13.627560
260 2 0.0000 18.036368 8.910157 11.621715
261 2 0.0000 17.870630 12.914123 15.832523
262 2 0.0000 18.605297 13.175933 13.146667
263 1 0.0000 25.991168 12.183834 17.944509
264 2 0.0000 25.418550 8.958251 9.730816
265 2 0.0000 26.204340 10.759043 17.219550
266 1 0.0000 17.095781 1.931224 25.772310
267 2 0.0000 18.371659 2.465299 26.650721
268 2 0.0000 14.975490 4.887115 18.998757
269 2 0.0000 15.510153 2.421895 25.966317
270 2 0.0000 17.488847 0.729558 24.657593
271 2 0.0000 15.632861 5.148442 22.671062
272 1 0.0000 15.590998 5.915090 21.164814
273 1 0.0000 19.749032 4.955820 18.622888
274 2 0.0000 18.152339 4.649281 18.783603
275 2 0.0000 14.511823 4.361960 26.193017
276 2 0.0000 20.124236 6.525076 18.947923
277 2 0.0000 21.484289 3.623270 24.573145
278 1 0.0000 22.870725 3.217607 23.831019
279 2 0.0000 23.352102 1.449426 24.085328
280 1 0.0000 22.335333 0.926536 26.263518
281 2 0.0000 24.899827 4.532018 23.272093
282 1 0.0000 24.769262 6.184217 22.646486
283 2 0.0000 26.376539 2.965776 18.483370
284 2 0.0000 18.772288 11.476300 18.271894
285 2 0.0000 16.964589 13.383325 19.664694
286 1 0.0000 17.393179 11.813047 19.167312
287 2 0.0000 17.537878 11.066995 20.662918
288 1 0.0000 13.580599 1.627517 20.166141
289 2 0.0000 14.807999 7.531703 18.133418
290 2 0.0000 25.504686 6.923612 21.360621
291 2 0.0000 25.134338 11.020672 24.340853
292 2 0.0000 26.184610 11.698681 26.559548
293 2 0.0000 21.366576 12.661226 26.404627
294 2 0.0000 24.505460 7.195105 23.969175
295 1 0.0000 26.481260 11.850230 24.888272
296 2 0.0000 24.500744 12.347002 18.598272
297 2 0.0000 17.712726 18.826352 2.373432
298 2 0.0000 14.986034 18.206160 2.138574
299 1 0.0000 16.114495 19.358816 2.425745
300 2 0.0000 15.976317 20.119511 3.880772
301 2 0.0000 20.565228 19.907784 1.163719
302 2 0.0000 25.930094 17.457728 8.195185
303 1 0.0000 25.817020 17.569088 6.478662
304 2 0.0000 24.794891 16.330462 6.024041
305 2 0.0000 22.918494 17.152456 2.779436
306 2 0.0000 26.732118 13.540052 1.984798
307 2 0.0000 22.102634 14.725503 1.540603
308 1 0.0000 22.916559 25.261841 3.090647
309 2 0.0000 19.259617 20.299669 8.271612
310 2 0.0000 19.136381 20.347419 3.024672
311 2 0.0000 17.737092 26.645957 2.695391
312 2 0.0000 14.776906 25.530252 0.856428
313 2 0.0000 16.011696 26.127787 6.226180
314 2 0.0000 14.592948 21.710283 1.090432
315 2 0.0000 16.530221 23.035007 6.376103
316 1 0.0000 15.805710 24.531917 5.737037
317 2 0.0000 14.850269 24.488188 4.444628
318 1 0.0000 18.967609 21.768147 7.665115
319 2 0.0000 19.094725 24.428100 1.876896
320 1 0.0000 18.991678 26.062691 1.817035
321 2 0.0000 18.756170 26.565392 0.250427
322 2 0.0000 18.754395 21.670811 5.988593
323 2 0.0000 17.670414 21.761867 0.744855
324 1 0.0000 19.803987 21.202782 1.740965
325 2 0.0000 24.290595 26.222248 3.188184
326 2 0.0000 26.723141 16.336847 2.661632
327 1 0.0000 26.555804 26.696957 1.194761
328 2 0.0000 25.328805 22.871958 7.322638
329 1 0.0000 25.426982 21.820521 8.609293
330 2 0.0000 21.799646 25.374646 4.330986
331 2 0.0000 25.085470 20.336102 7.931361
332 2 0.0000 22.921029 23.785783 2.392094
333 2 0.0000 22.033465 26.174033 2.030866
334 2 0.0000 20.639442 22.193345 2.722733
335 1 0.0000 21.479588 14.156181 0.127422
336 2 0.0000 26.510278 16.000051 0.136212
337 2 0.0000 18.273522 18.025554 13.585371
338 1 0.0000 17.592530 19.363122 12.922773
339 2 0.0000 16.043843 19.747209 13.230919
340 2 0.0000 19.903296 17.124786 16.505849
341 1 0.0000 19.026646 17.527529 17.889560
342 2 0.0000 17.681960 18.374890 17.666455
343 2 0.0000 20.232903 16.401850 12.454173
344 2 0.0000 23.866727 19.395356 16.643536
345 2 0.0000 22.682425 19.873601 10.019046
346 2 0.0000 25.255157 17.158219 17.326652
347 1 0.0000 23.891877 18.131046 17.716930
348 1 0.0000 21.700997 20.106984 11.382868
349 2 0.0000 26.905871 13.590879 17.845072
350 2 0.0000 13.812003 22.496433 10.175282
351 2 0.0000 15.636982 20.739597 9.526016
352 2 0.0000 15.264832 22.267074 12.370697
353 2 0.0000 18.436914 20.731407 12.608538
354 1 0.0000 16.481333 23.182792 11.695589
355 2 0.0000 17.145160 24.640859 12.209035
356 2 0.0000 17.726490 22.273481 11.236797
357 2 0.0000 15.591132 23.740433 10.469425
358 1 0.0000 14.025912 21.047221 9.527938
359 1 0.0000 26.009016 25.505443 16.888982
360 2 0.0000 22.546576 21.171994 12.440585
361 2 0.0000 25.535052 26.900518 16.277455
362 2 0.0000 25.012340 21.614425 14.156902
363 2 0.0000 20.249756 20.746031 10.959003
364 1 0.0000 25.076730 22.874924 13.099692
365 2 0.0000 25.970932 24.815720 14.103503
366 2 0.0000 24.325285 22.354716 9.611910
367 2 0.0000 23.862532 22.867018 11.934189
368 1 0.0000 15.052935 18.828317 24.352331
369 2 0.0000 16.623993 18.837684 24.878879
370 2 0.0000 18.488695 16.879731 21.871554
371 2 0.0000 19.849502 18.314239 19.130939
372 1 0.0000 20.128806 16.920439 22.049960
373 2 0.0000 13.681670 26.977918 25.614416
374 2 0.0000 13.652127 15.207020 18.824639
375 2 0.0000 20.490442 18.569473 21.845744
376 2 0.0000 22.517375 14.982933 19.460834
377 2 0.0000 23.663359 15.653291 21.630624
378 1 0.0000 22.692387 16.243168 20.409485
379 2 0.0000 21.216451 16.144879 21.046932
380 2 0.0000 23.120537 18.398484 19.372247
381 2 0.0000 26.269511 17.004733 21.633043
382 2 0.0000 14.172304 20.239881 24.607605
383 1 0.0000 13.910443 23.964354 22.342885
384 1 0.0000 14.989371 26.332008 26.430437
385 2 0.0000 16.318537 22.353357 25.253461
386 1 0.0000 17.381614 22.970241 26.339350
387 2 0.0000 15.127316 24.761395 23.225170
388 2 0.0000 18.995643 22.759178 23.362717
389 2 0.0000 20.644727 20.855250 22.452983
390 2 0.0000 23.896498 22.485571 26.930962
391 2 0.0000 25.822823 26.065416 18.458181
392 2 0.0000 20.596230 23.218529 21.486469
393 2 0.0000 21.030906 26.992474 25.993471
394 1 0.0000 22.767757 23.218078 25.954925
395 1 0.0000 20.546312 22.429479 22.938702
396 2 0.0000 22.500842 22.893568 24.130077
397 2 0.0000 26.361377 26.429241 26.571641
398 2 0.0000 21.715759 24.283797 26.572846
