LAMMPS data file via write_data, version 29 Aug 2024, timestep = 100000, units = real

300 atoms
2 atom types

-79.3005619430916 106.30056194527148 xlo xhi
-79.3005619430916 106.30056194527148 ylo yhi
-79.3005619430916 106.30056194527148 zlo zhi

Masses

1 28.0855
2 15.999


Atoms # charge

1 1 1.600000 -58.992335 -27.198822 -68.868902
2 2 -0.800000 -59.732731 -27.724774 -70.194868
3 2 -0.800000 -57.466871 -27.662301 -68.801383
4 2 -0.800000 -59.177162 -25.708854 -68.342282
5 1 1.600000 -59.196497 -24.227996 -68.860240
6 2 -0.800000 -60.501575 -24.002518 -69.862363
7 2 -0.800000 -58.714820 -22.949482 -68.032619
8 1 1.600000 -10.086939 -54.272768 -55.550245
9 2 -0.800000 -9.858478 -54.636749 -54.001393
10 1 1.600000 -12.301740 -52.604738 -54.487263
11 2 -0.800000 -10.576619 -54.510166 -50.993584
12 2 -0.800000 -11.093427 -52.548491 -53.216525
13 1 1.600000 -10.603154 -54.129995 -52.622003
14 2 -0.800000 -42.786276 -27.165088 -42.785994
15 1 1.600000 -41.709708 -26.073573 -43.486074
16 2 -0.800000 -38.029271 -28.516685 -42.413180
17 1 1.600000 -38.369579 -26.960600 -42.680698
18 1 1.600000 -79.274967 -42.082584 -38.425940
19 2 -0.800000 -77.733643 -41.730093 -38.808409
20 2 -0.800000 -78.666845 -41.126628 -39.640418
21 2 -0.800000 -13.084909 -40.002163 -24.320946
22 2 -0.800000 -44.066879 -17.561363 -19.803260
23 1 1.600000 -44.516002 -16.426217 -20.780060
24 2 -0.800000 -45.477374 -16.826412 -21.958602
25 1 1.600000 12.203157 -31.774620 -14.180564
26 2 -0.800000 11.713536 -32.075365 -15.691587
27 2 -0.800000 11.349740 -30.672050 -13.346976
28 1 1.600000 11.254244 -29.955805 -11.861382
29 2 -0.800000 12.808261 -29.494000 -12.096587
30 1 1.600000 12.013644 -32.332251 -9.898345
31 2 -0.800000 11.840009 -31.099105 -8.813160
32 1 1.600000 13.026369 -30.043185 -8.415417
33 1 1.600000 12.076316 -27.522475 -9.933441
34 2 -0.800000 11.589861 -26.004872 -9.488541
35 2 -0.800000 12.434599 -28.506657 -8.578994
36 2 -0.800000 -40.597257 -78.919118 38.835660
37 2 -0.800000 -78.181351 -68.334789 12.216556
38 2 -0.800000 -78.424744 -71.220406 11.711311
39 1 1.600000 -78.969041 -69.662513 12.090305
40 1 1.600000 -78.489132 -66.854076 12.722603
41 2 -0.800000 -77.268310 -65.821240 12.971868
42 2 -0.800000 -39.611601 -78.853866 38.167152
43 2 -0.800000 -53.800248 -29.872586 67.879482
44 2 -0.800000 -5.759236 -70.236852 85.443626
45 2 -0.800000 -3.082398 -70.212792 86.499586
46 1 1.600000 -4.346572 -69.405245 85.727646
47 2 -0.800000 -68.129910 -34.280971 87.601793
48 2 -0.800000 -68.002719 -32.242068 85.727316
49 1 1.600000 -67.274336 -31.255398 84.709539
50 1 1.600000 -67.261900 -33.379186 86.641137
51 2 -0.800000 -65.564706 -33.244351 86.261217
52 2 -0.800000 -67.781258 -29.650499 84.879849
53 2 -0.800000 -49.697366 49.256685 -54.775162
54 1 1.600000 -49.153685 49.351292 -53.175139
55 2 -0.800000 -48.578115 47.939587 -52.475584
56 2 -0.800000 -44.810542 48.229425 -54.011013
57 2 -0.800000 -47.532321 49.672738 -53.642764
58 1 1.600000 -46.318876 48.565173 -53.494859
59 2 -0.800000 -47.544534 47.426481 -53.487120
60 1 1.600000 -56.078958 75.621109 -52.469074
61 2 -0.800000 -55.043547 76.423592 -51.600040
62 2 -0.800000 -52.611680 75.697630 -51.152565
63 2 -0.800000 -50.309186 76.438273 -52.572442
64 1 1.600000 -51.216528 76.473027 -51.190910
65 2 -0.800000 -53.749315 77.452453 -49.616702
66 1 1.600000 -53.997529 76.032135 -50.493634
67 2 -0.800000 -33.409723 55.036418 -38.512659
68 2 -0.800000 -42.431738 99.615418 -32.759427
69 1 1.600000 -43.712272 98.747824 -32.339254
70 2 -0.800000 -45.207696 99.204865 -32.733086
71 2 -0.800000 -31.564721 75.133425 1.490648
72 2 -0.800000 -30.687490 75.920808 1.621312
73 1 1.600000 -18.827993 41.604270 36.138831
74 2 -0.800000 -19.152338 42.910583 37.116812
75 2 -0.800000 -19.916115 41.667634 34.901585
76 1 1.600000 -18.121088 44.167431 37.235651
77 2 -0.800000 -16.735183 43.757959 36.418128
78 2 -0.800000 -71.663143 90.250287 42.034497
79 2 -0.800000 -69.768502 91.845425 43.210226
80 2 -0.800000 -69.608399 91.540511 40.830335
81 2 -0.800000 -69.459366 89.243540 42.344455
82 1 1.600000 -70.111820 90.686765 42.108454
83 2 -0.800000 -15.596280 14.923180 48.321988
84 1 1.600000 -58.722828 65.326663 62.800956
85 2 -0.800000 -58.050888 63.900440 63.112455
86 2 -0.800000 -58.486158 65.859146 64.373980
87 2 -0.800000 46.244663 7.395943 -76.763568
88 2 -0.800000 45.168928 8.370884 -79.015827
89 1 1.600000 45.617025 8.646680 -77.467584
90 2 -0.800000 87.981158 -68.203802 -66.827160
91 2 -0.800000 90.661809 -53.308880 -71.117156
92 1 1.600000 91.401186 -51.964535 -70.632828
93 2 -0.800000 92.532818 -51.176425 -71.323081
94 2 -0.800000 91.275349 -51.539764 -69.067389
95 1 1.600000 92.041769 -50.687113 -67.948507
96 2 -0.800000 93.587218 -50.864275 -67.830146
97 2 -0.800000 91.501809 -49.241630 -67.534963
98 2 -0.800000 95.192734 -50.832330 -72.654469
99 1 1.600000 94.138063 -51.109504 -71.387968
100 2 -0.800000 94.754598 -50.264559 -70.150289
101 1 1.600000 94.888467 -50.183503 -68.512299
102 1 1.600000 86.936601 -69.407288 -66.450095
103 2 -0.800000 85.754214 -69.613048 -65.340698
104 2 -0.800000 87.293929 -71.028460 -66.417851
105 1 1.600000 104.012840 -19.823096 -54.977714
106 2 -0.800000 104.517161 -20.968113 -56.011756
107 2 -0.800000 105.152221 -18.775969 -55.578838
108 2 -0.800000 25.866059 -78.943527 -43.498215
109 1 1.600000 77.899984 -78.964250 -42.224007
110 2 -0.800000 78.738720 -79.152656 -43.612863
111 2 -0.800000 23.198990 -77.496821 -40.957847
112 1 1.600000 23.983689 -78.585582 -39.975775
113 1 1.600000 105.821847 -43.196344 -35.798602
114 2 -0.800000 76.885819 -77.689971 -41.879262
115 2 -0.800000 80.812016 -79.051720 -39.322903
116 2 -0.800000 104.529763 -42.696366 -34.946129
117 2 -0.800000 105.806390 -44.628495 -36.786117
118 2 -0.800000 105.953606 -43.756401 -38.740228
119 2 -0.800000 106.295951 -42.116525 -36.816767
120 1 1.600000 14.438201 -32.202527 -12.051876
121 2 -0.800000 15.751943 -32.826415 -11.269965
122 2 -0.800000 17.951104 -33.596861 -9.881216
123 1 1.600000 16.477664 -33.003510 -9.872318
124 2 -0.800000 15.719022 -32.950423 -8.498475
125 2 -0.800000 13.981573 -33.286420 -6.386378
126 1 1.600000 14.310754 -32.614389 -7.763786
127 1 1.600000 14.218560 -29.166305 -11.172750
128 2 -0.800000 14.015238 -29.793392 -9.726549
129 1 1.600000 88.877659 -71.832417 12.884886
130 1 1.600000 104.404100 -67.326937 11.475006
131 2 -0.800000 103.186001 -68.039411 10.789548
132 2 -0.800000 105.400996 -68.763931 11.311111
133 2 -0.800000 101.518489 -70.522424 10.412013
134 1 1.600000 102.389511 -69.445463 11.331390
135 2 -0.800000 105.649063 -70.067834 13.282736
136 2 -0.800000 103.764250 -67.199469 13.034336
137 2 -0.800000 106.065179 -72.562763 13.064588
138 2 -0.800000 105.849274 -66.563741 11.689243
139 2 -0.800000 101.497950 -52.894627 12.133708
140 2 -0.800000 101.226386 -52.987919 10.974539
141 2 -0.800000 88.423627 -72.642422 14.200832
142 1 1.600000 104.110227 -70.313684 13.829925
143 1 1.600000 104.570540 -67.512198 14.358089
144 2 -0.800000 106.229386 -67.407147 13.998466
145 2 -0.800000 84.756921 -42.405066 25.544929
146 2 -0.800000 83.153287 -45.674842 25.022180
147 1 1.600000 84.393014 -44.743127 24.617293
148 2 -0.800000 85.791395 -45.404002 23.926684
149 2 -0.800000 13.503682 -27.739089 -10.647385
150 2 -0.800000 13.579139 -32.315949 -13.468040
151 2 -0.800000 49.406077 -31.072199 46.732572
152 2 -0.800000 48.984793 -31.023356 47.865777
153 1 1.600000 92.441302 -27.437700 56.046279
154 2 -0.800000 93.341602 -28.310878 55.077500
155 2 -0.800000 92.995604 -26.011560 56.527392
156 2 -0.800000 95.938071 -29.137568 55.440648
157 1 1.600000 94.350449 -29.510989 55.118519
158 2 -0.800000 52.018214 -72.317727 57.732988
159 1 1.600000 51.815631 -71.676842 59.147441
160 2 -0.800000 53.153780 -71.283416 60.006841
161 1 1.600000 49.708343 -38.649049 59.379948
162 2 -0.800000 49.157786 -39.146972 60.835674
163 2 -0.800000 51.127636 -39.454728 59.949492
164 1 1.600000 51.125065 -36.130892 58.776297
165 2 -0.800000 51.363171 -36.361855 57.126042
166 2 -0.800000 52.390678 -35.720305 59.711179
167 2 -0.800000 91.604274 -28.339113 57.089472
168 1 1.600000 98.531478 -0.112066 61.925661
169 2 -0.800000 97.448751 -1.338571 61.966067
170 2 -0.800000 98.593975 0.780088 60.623853
171 2 -0.800000 14.126130 -6.226164 64.853316
172 1 1.600000 99.788888 0.645334 64.459159
173 2 -0.800000 98.387838 0.923210 63.366558
174 2 -0.800000 100.019585 -0.318546 65.731387
175 1 1.600000 102.336791 -49.193370 79.442079
176 2 -0.800000 103.743165 -49.774505 79.068716
177 2 -0.800000 102.151235 -48.053860 80.499347
178 2 -0.800000 56.761595 28.409273 -73.729855
179 2 -0.800000 58.348255 29.062086 -75.507804
180 1 1.600000 58.025214 29.447380 -73.932610
181 2 -0.800000 59.248034 28.807700 -73.123828
182 2 -0.800000 56.820684 27.495136 -71.690458
183 1 1.600000 57.487372 28.257628 -70.503469
184 1 1.600000 60.042921 28.446780 -71.786289
185 2 -0.800000 58.964404 28.762116 -70.646790
186 1 1.600000 36.138319 87.081676 -64.031363
187 1 1.600000 36.562146 84.956334 -62.008749
188 2 -0.800000 36.786578 83.420612 -61.702788
189 1 1.600000 36.112097 87.749985 -61.154358
190 2 -0.800000 35.985608 88.062405 -62.697742
191 2 -0.800000 36.228687 88.671640 -59.881763
192 2 -0.800000 105.699490 80.863955 -52.410066
193 2 -0.800000 21.921728 103.234314 -43.740180
194 1 1.600000 22.843866 103.806267 -42.488541
195 2 -0.800000 24.001014 104.843290 -42.989608
196 1 1.600000 25.328116 105.577559 -42.473020
197 2 -0.800000 22.054878 104.476813 -41.266993
198 2 -0.800000 20.647419 105.035420 -38.966145
199 1 1.600000 22.111097 104.781535 -39.689470
200 2 -0.800000 24.424597 101.130912 -39.904305
201 2 -0.800000 23.196034 103.649664 -39.320019
202 1 1.600000 24.273956 102.692608 -40.091865
203 2 -0.800000 22.866905 106.152288 -39.295785
204 2 -0.800000 26.424770 104.533528 -41.788843
205 2 -0.800000 81.030506 105.941659 -41.663997
206 2 -0.800000 78.828204 106.018069 -40.996101
207 2 -0.800000 83.599867 105.966784 -39.722763
208 2 -0.800000 61.814003 48.667183 -35.194598
209 2 -0.800000 25.031157 106.231689 -40.982177
210 1 1.600000 81.966643 106.111075 -40.315043
211 2 -0.800000 83.249042 43.091866 -7.029917
212 2 -0.800000 83.992044 43.949943 -6.259251
213 2 -0.800000 22.908968 56.945036 7.050636
214 2 -0.800000 20.658507 57.070831 7.415377
215 2 -0.800000 24.745197 56.634226 9.382558
216 2 -0.800000 22.050442 57.409375 9.378915
217 1 1.600000 20.546859 57.235921 9.035634
218 1 1.600000 23.409096 57.409186 8.586518
219 2 -0.800000 48.365870 91.933350 16.226657
220 2 -0.800000 40.439080 25.843949 21.526151
221 1 1.600000 41.181905 25.272842 20.267095
222 2 -0.800000 37.944770 26.439686 24.972923
223 2 -0.800000 36.408623 28.263816 23.668777
224 1 1.600000 37.884476 27.714202 24.088299
225 2 -0.800000 42.219196 26.586698 20.108039
226 1 1.600000 40.522634 27.017353 22.693231
227 2 -0.800000 41.729160 27.847546 21.840349
228 1 1.600000 41.234540 26.546356 25.727023
229 2 -0.800000 37.345785 24.725231 26.710229
230 2 -0.800000 40.050829 25.612275 26.249398
231 1 1.600000 38.448267 25.888957 26.412818
232 2 -0.800000 40.697507 27.984775 26.229884
233 1 1.600000 39.298414 28.629354 26.596627
234 2 -0.800000 38.572259 27.388819 27.209772
235 2 -0.800000 35.853074 51.284059 26.313776
236 2 -0.800000 76.788142 22.591262 40.653777
237 2 -0.800000 71.051202 80.869462 45.046636
238 2 -0.800000 67.895655 82.132179 48.482713
239 2 -0.800000 69.467630 84.049687 47.472791
240 1 1.600000 71.380920 81.902674 46.257326
241 2 -0.800000 70.698487 86.238692 46.137383
242 2 -0.800000 70.442537 81.838046 47.604035
243 1 1.600000 73.471865 83.987484 46.597766
244 1 1.600000 69.356023 82.760537 48.359485
245 2 -0.800000 73.378179 84.869108 47.971882
246 2 -0.800000 71.139138 85.706455 48.832635
247 1 1.600000 70.127892 85.497506 47.544541
248 1 1.600000 72.465853 85.224949 49.319974
249 2 -0.800000 73.201177 86.172675 50.472917
250 2 -0.800000 74.841238 83.646785 45.705511
251 2 -0.800000 62.217895 35.460252 54.509120
252 1 1.600000 62.504572 35.276581 56.057942
253 1 1.600000 64.827329 34.695216 57.701297
254 2 -0.800000 63.615922 34.912643 58.937974
255 2 -0.800000 75.413413 31.555926 68.841146
256 2 -0.800000 69.900768 28.951431 74.588280
257 1 1.600000 74.874298 30.906814 70.306378
258 2 -0.800000 72.333177 27.917310 74.000199
259 1 1.600000 73.794696 28.690117 74.005705
260 1 1.600000 70.797796 28.189158 73.475850
261 2 -0.800000 73.988319 30.071980 74.766642
262 2 -0.800000 73.247270 30.465573 70.262085
263 2 -0.800000 71.181512 29.062242 72.114350
264 1 1.600000 72.283450 30.137276 71.524050
265 1 1.600000 74.725856 31.426191 74.571040
266 2 -0.800000 75.312599 28.692307 73.413867
267 2 -0.800000 75.893236 30.044811 71.215858
268 1 1.600000 76.467896 29.664966 72.725352
269 2 -0.800000 77.978378 29.126546 72.963582
270 2 -0.800000 75.909247 30.981107 73.512215
271 2 -0.800000 74.533917 32.222763 71.094351
272 2 -0.800000 74.139469 32.599679 73.634282
273 1 1.600000 73.561266 32.850234 72.177115
274 2 -0.800000 75.227500 31.989055 75.985671
275 2 -0.800000 86.155909 73.251533 80.637659
276 1 1.600000 86.499057 71.863027 81.249304
277 2 -0.800000 87.436099 70.960350 80.196068
278 2 -0.800000 85.254931 70.624984 81.497578
279 1 1.600000 87.924950 69.421785 80.514858
280 2 -0.800000 94.273573 68.690098 87.106174
281 2 -0.800000 96.673170 68.430013 85.484755
282 1 1.600000 95.264097 69.102323 85.936205
283 1 1.600000 92.815268 69.263825 87.441141
284 2 -0.800000 92.541239 71.874660 84.064865
285 1 1.600000 91.021761 72.401900 83.971385
286 2 -0.800000 90.371976 72.162712 85.444483
287 2 -0.800000 88.536176 70.709657 84.719931
288 1 1.600000 88.663290 70.875267 83.097557
289 1 1.600000 89.064951 71.494006 85.983919
290 2 -0.800000 89.258346 70.852772 87.454872
291 2 -0.800000 88.127195 72.797296 85.573909
292 1 1.600000 93.242792 71.049274 85.233152
293 2 -0.800000 92.996701 72.033786 86.545934
294 2 -0.800000 94.626424 70.350483 85.227880
295 2 -0.800000 19.537499 67.397329 88.452888
296 2 -0.800000 91.436975 69.362405 88.362403
297 1 1.600000 92.675051 72.107391 88.187722
298 1 1.600000 90.284303 70.466994 88.638933
299 2 -0.800000 91.221168 71.788798 88.797166
300 2 -0.800000 89.178655 69.956778 89.814341
