LAMMPS data file - Pure SiO2 from sol-gel (pH 7), Vashishta format

409 atoms
2 atom types

0.000000 27.000000 xlo xhi
0.000000 27.000000 ylo yhi
0.000000 27.000000 zlo zhi

Masses

1 28.0855  # Si
2 15.9994  # O

Atoms # charge

1 2 0.0000 2.766039 5.371498 3.916135
2 2 0.0000 4.440022 4.530797 2.761047
3 2 0.0000 5.510206 3.343290 7.755809
4 2 0.0000 1.082846 3.990590 2.120279
5 1 0.0000 1.511940 4.268734 3.871079
6 2 0.0000 2.127197 2.766697 3.890205
7 1 0.0000 1.160666 4.311508 8.102838
8 1 0.0000 2.084336 5.639290 0.603518
9 2 0.0000 6.078980 0.798410 7.267970
10 2 0.0000 0.283627 4.167250 4.978625
11 1 0.0000 6.693565 2.245766 7.620277
12 2 0.0000 4.101492 1.088583 0.147698
13 2 0.0000 10.369164 1.315712 7.694471
14 2 0.0000 7.242178 2.805908 6.180224
15 2 0.0000 7.581400 3.415031 2.564444
16 2 0.0000 10.193166 5.359409 6.442017
17 1 0.0000 7.903585 3.372857 0.958225
18 1 0.0000 9.873028 2.690477 8.401913
19 2 0.0000 9.054619 4.543919 1.002465
20 1 0.0000 10.539317 5.041050 0.561757
21 2 0.0000 11.809017 4.080408 1.705235
22 2 0.0000 8.289394 6.071666 8.009332
23 2 0.0000 12.768893 4.904099 3.531691
24 2 0.0000 11.065000 3.874212 8.689114
25 2 0.0000 13.114906 1.298525 6.729903
26 1 0.0000 9.182513 6.591788 6.777934
27 2 0.0000 10.530321 6.731776 0.764628
28 2 0.0000 8.658805 1.932552 0.509540
29 1 0.0000 3.966116 13.234701 6.472285
30 2 0.0000 4.035652 12.935913 8.174640
31 2 0.0000 2.538439 10.388980 7.680450
32 2 0.0000 2.936317 6.844990 1.346745
33 2 0.0000 1.807077 10.991439 5.521004
34 2 0.0000 2.958756 10.994754 2.861109
35 1 0.0000 2.795733 10.297313 4.370089
36 2 0.0000 4.365240 9.927658 4.874466
37 2 0.0000 5.908903 9.078289 7.876660
38 2 0.0000 2.385885 12.984214 6.123137
39 2 0.0000 6.359228 11.682302 7.840909
40 2 0.0000 0.308235 8.297272 8.849009
41 2 0.0000 7.957673 9.267899 0.298752
42 1 0.0000 6.829882 10.241001 8.444079
43 2 0.0000 10.085136 7.933656 7.149080
44 2 0.0000 8.299242 7.101643 5.504540
45 2 0.0000 8.490055 10.705393 5.781282
46 2 0.0000 8.261558 10.106662 7.865668
47 2 0.0000 12.777376 6.079969 8.939258
48 2 0.0000 13.122921 3.415285 0.062268
49 1 0.0000 5.577456 2.447176 13.762968
50 2 0.0000 4.685564 3.206461 14.987481
51 2 0.0000 1.791859 3.076016 15.366913
52 2 0.0000 5.242568 2.254247 12.217522
53 2 0.0000 0.817212 2.547084 17.248552
54 2 0.0000 2.223097 4.220101 9.336004
55 2 0.0000 1.419258 6.708278 13.154343
56 2 0.0000 13.394926 7.841143 14.157020
57 2 0.0000 7.074508 1.787355 14.346722
58 2 0.0000 8.318032 2.667582 9.357847
59 2 0.0000 11.339694 1.489105 13.565666
60 2 0.0000 9.902510 5.147773 16.800817
61 2 0.0000 10.211096 2.394793 15.541349
62 2 0.0000 11.557175 4.082392 14.557564
63 1 0.0000 10.654732 2.850649 14.078245
64 2 0.0000 8.218182 4.710061 14.545669
65 2 0.0000 9.508432 3.546610 13.170251
66 2 0.0000 11.466432 6.212652 14.121564
67 2 0.0000 8.180127 1.149012 12.565337
68 1 0.0000 8.122187 6.360902 14.336383
69 2 0.0000 12.983565 3.464354 16.614384
70 2 0.0000 12.116077 1.416766 17.819073
71 1 0.0000 12.785362 6.733366 13.067500
72 1 0.0000 13.296064 2.566101 17.888457
73 1 0.0000 2.762078 7.078172 13.968602
74 2 0.0000 1.517601 10.679264 17.375455
75 2 0.0000 2.176168 7.949395 15.257023
76 2 0.0000 2.136881 11.040532 10.258337
77 2 0.0000 3.505595 8.296572 13.228502
78 2 0.0000 5.435159 13.430576 14.287813
79 2 0.0000 0.126571 7.595262 16.027795
80 1 0.0000 2.112127 9.837247 9.136595
81 2 0.0000 6.667256 7.133216 15.398893
82 2 0.0000 7.064194 10.281074 10.706553
83 2 0.0000 10.668095 13.230236 15.477493
84 2 0.0000 9.207101 7.223560 13.356128
85 2 0.0000 11.784904 7.281220 11.611566
86 1 0.0000 5.397670 1.681124 26.398422
87 2 0.0000 6.471508 1.017351 25.428320
88 2 0.0000 6.372473 5.706890 20.589657
89 2 0.0000 5.811931 3.376207 26.794838
90 2 0.0000 1.284331 6.021090 26.167827
91 2 0.0000 10.538596 3.638885 26.153270
92 2 0.0000 12.896823 3.443615 19.302411
93 1 0.0000 10.076677 4.293177 18.245207
94 2 0.0000 9.032992 2.973213 18.433341
95 2 0.0000 6.432098 8.666243 20.092967
96 2 0.0000 2.491980 8.078870 24.420978
97 1 0.0000 2.709126 8.925062 25.812488
98 2 0.0000 2.640196 9.178331 20.429676
99 2 0.0000 1.353805 11.640681 19.754323
100 1 0.0000 2.756663 10.879839 20.315470
101 2 0.0000 4.126874 11.880644 20.029678
102 2 0.0000 4.320169 8.690390 26.056679
103 2 0.0000 2.471082 10.521535 25.462718
104 2 0.0000 3.124458 13.103755 26.814482
105 2 0.0000 10.890290 10.007273 24.777188
106 1 0.0000 7.130411 7.159506 20.164111
107 2 0.0000 11.745070 7.133745 19.258373
108 1 0.0000 12.974724 7.530732 20.276581
109 2 0.0000 7.283966 9.835527 24.155638
110 2 0.0000 9.037254 10.553099 22.098475
111 2 0.0000 12.025399 7.285868 21.716030
112 2 0.0000 8.758948 7.379981 19.846728
113 1 0.0000 8.810681 9.949827 23.575637
114 2 0.0000 2.216573 14.586105 4.278956
115 2 0.0000 5.656160 16.163135 3.596496
116 2 0.0000 5.467075 17.229541 6.710905
117 1 0.0000 3.282745 14.523578 0.668841
118 1 0.0000 6.149894 16.684148 8.408883
119 2 0.0000 4.762053 14.590130 5.865375
120 2 0.0000 1.837241 15.273156 0.567759
121 2 0.0000 3.788713 13.764184 2.068998
122 2 0.0000 1.210917 20.172906 3.893668
123 2 0.0000 4.967748 15.490621 8.584816
124 2 0.0000 6.972831 14.612016 1.719556
125 1 0.0000 6.876587 16.110364 2.408797
126 2 0.0000 8.381550 16.540645 2.954312
127 2 0.0000 8.459473 18.611520 5.028270
128 1 0.0000 9.726950 19.266705 4.215851
129 2 0.0000 11.206030 18.843433 4.784073
130 2 0.0000 9.315249 19.444673 2.608749
131 1 0.0000 1.153401 20.970877 5.366023
132 2 0.0000 1.882039 22.522961 8.078527
133 2 0.0000 8.544483 26.850442 1.302922
134 1 0.0000 5.840824 24.093314 8.952202
135 2 0.0000 12.188074 23.125002 8.929357
136 2 0.0000 10.063369 23.245214 0.597841
137 2 0.0000 10.804451 20.732922 1.624606
138 2 0.0000 10.036525 24.968497 4.402038
139 1 0.0000 10.046674 21.642437 0.410285
140 2 0.0000 6.929193 24.070630 7.699554
141 2 0.0000 1.202093 19.993399 8.707050
142 2 0.0000 2.879862 18.104973 11.770049
143 1 0.0000 5.892727 14.826884 14.913262
144 2 0.0000 4.590547 15.103254 15.796623
145 2 0.0000 0.886717 14.786416 11.882061
146 1 0.0000 3.493747 19.916774 16.883417
147 2 0.0000 5.604633 18.157181 9.053048
148 2 0.0000 4.852992 19.324840 17.671146
149 2 0.0000 0.081915 17.608915 12.281211
150 2 0.0000 13.188220 16.826745 12.497402
151 2 0.0000 7.159542 14.432049 15.906408
152 1 0.0000 10.989767 14.786483 15.661214
153 2 0.0000 12.361054 15.082705 14.720788
154 2 0.0000 9.626772 15.610789 15.265662
155 1 0.0000 11.279101 19.201572 15.194073
156 2 0.0000 11.881076 17.676896 15.051043
157 2 0.0000 10.453290 19.886432 16.488842
158 2 0.0000 5.897104 20.483287 11.293468
159 2 0.0000 0.340509 24.069432 10.270609
160 2 0.0000 3.916132 21.103461 15.844042
161 2 0.0000 5.034824 25.310928 9.572367
162 2 0.0000 2.086136 20.664150 12.777633
163 2 0.0000 2.173193 22.115893 10.646722
164 2 0.0000 1.159050 22.944011 12.375107
165 1 0.0000 1.088989 21.838425 13.553474
166 2 0.0000 1.347175 23.983733 16.743242
167 1 0.0000 1.697956 21.357283 9.251753
168 2 0.0000 13.458055 25.519707 13.722119
169 2 0.0000 2.319202 20.552597 17.851959
170 2 0.0000 12.647008 22.594027 11.481528
171 2 0.0000 10.451637 24.181503 10.697068
172 2 0.0000 9.781302 25.575970 15.674995
173 2 0.0000 10.562526 20.686061 11.926684
174 2 0.0000 9.437289 22.950143 15.783259
175 1 0.0000 10.157068 24.105932 14.903704
176 1 0.0000 12.095673 23.786954 10.449571
177 1 0.0000 7.276354 21.010125 10.587314
178 2 0.0000 6.711855 22.685471 10.741037
179 2 0.0000 8.410601 20.934672 11.791978
180 2 0.0000 11.939294 20.537489 14.513593
181 1 0.0000 8.530941 26.522563 12.451756
182 2 0.0000 11.839907 23.950388 15.087335
183 2 0.0000 1.528198 18.652392 22.355151
184 2 0.0000 4.772937 15.824923 19.203307
185 2 0.0000 2.307096 16.325797 19.918906
186 1 0.0000 3.291135 15.017112 19.451290
187 1 0.0000 5.738378 19.474732 20.825826
188 2 0.0000 0.825639 14.071307 24.089099
189 1 0.0000 6.336201 15.726432 19.724013
190 2 0.0000 5.979893 16.347668 21.227049
191 1 0.0000 1.702606 19.950134 21.246185
192 2 0.0000 0.685725 19.161872 26.381909
193 2 0.0000 6.344518 13.775166 19.386612
194 2 0.0000 2.321604 14.528121 18.220230
195 2 0.0000 6.981079 19.484025 19.803582
196 2 0.0000 7.998853 15.770585 19.671788
197 2 0.0000 9.342389 16.140157 22.597918
198 2 0.0000 11.863460 18.363581 21.569724
199 1 0.0000 9.635364 17.502908 21.655530
200 1 0.0000 12.909166 17.980714 20.192861
201 2 0.0000 8.838955 18.539145 22.723638
202 2 0.0000 12.828758 16.287868 25.379062
203 2 0.0000 12.287756 18.186645 18.720052
204 2 0.0000 12.800200 19.180902 25.092247
205 2 0.0000 11.326112 16.965858 26.787602
206 2 0.0000 0.115693 20.498128 21.250964
207 2 0.0000 2.566487 20.398309 24.926786
208 2 0.0000 5.843013 21.048222 21.216343
209 2 0.0000 2.286840 21.053303 22.360953
210 2 0.0000 2.104801 23.133182 24.426046
211 1 0.0000 1.887630 21.561180 23.958390
212 2 0.0000 12.665668 22.863377 20.255743
213 2 0.0000 12.029518 25.153165 21.548794
214 1 0.0000 11.804390 24.186638 20.224731
215 1 0.0000 17.106735 3.864281 6.782500
216 2 0.0000 16.286489 0.733735 4.069445
217 2 0.0000 15.823377 4.343097 5.795129
218 2 0.0000 19.315699 3.525213 5.848941
219 1 0.0000 20.138018 2.240138 6.851296
220 2 0.0000 16.388007 0.914149 1.846522
221 2 0.0000 13.779432 5.690093 1.132071
222 2 0.0000 16.524821 2.483726 7.573934
223 1 0.0000 14.548706 4.260495 0.600765
224 1 0.0000 14.070441 0.607201 7.827370
225 2 0.0000 15.334011 6.537384 2.437435
226 2 0.0000 20.487383 0.773565 6.330968
227 2 0.0000 26.846901 3.390649 8.466578
228 2 0.0000 20.508492 2.830121 8.464616
229 1 0.0000 25.174133 1.143913 6.699346
230 2 0.0000 23.449260 1.438737 7.190579
231 2 0.0000 26.120469 2.508879 6.604372
232 1 0.0000 25.451154 0.411825 1.307478
233 2 0.0000 25.243423 2.060259 0.821098
234 2 0.0000 26.523230 0.207310 2.627016
235 2 0.0000 23.606360 6.111538 1.940007
236 1 0.0000 23.938318 10.283633 8.127635
237 2 0.0000 17.837392 6.868713 4.427354
238 2 0.0000 16.220357 7.522816 6.696182
239 1 0.0000 16.582020 7.799502 5.054651
240 2 0.0000 15.362640 9.256852 2.212522
241 1 0.0000 15.917755 7.854049 1.638146
242 2 0.0000 16.139657 9.230674 4.310612
243 2 0.0000 17.541811 7.941712 1.749913
244 2 0.0000 19.293997 11.071789 2.421947
245 1 0.0000 20.104134 12.427706 2.803286
246 2 0.0000 15.540319 7.703048 0.093278
247 2 0.0000 20.274313 12.731393 4.424170
248 2 0.0000 24.097818 10.553635 6.539268
249 2 0.0000 25.448387 7.652949 2.387990
250 1 0.0000 24.272251 7.830735 1.322198
251 2 0.0000 22.423341 10.092012 8.785246
252 1 0.0000 15.107588 2.214058 11.468676
253 2 0.0000 16.202090 3.074295 12.330422
254 2 0.0000 13.791491 2.535053 10.504781
255 2 0.0000 19.933849 3.535614 10.956407
256 2 0.0000 15.455352 1.761506 17.719076
257 2 0.0000 18.184769 4.208992 17.490367
258 2 0.0000 25.068752 13.457375 15.848321
259 2 0.0000 15.716255 0.497745 10.672239
260 2 0.0000 20.138269 6.396283 11.096106
261 2 0.0000 13.598590 0.371124 9.355110
262 2 0.0000 20.282124 4.790155 13.331284
263 1 0.0000 20.724704 4.736608 11.809193
264 2 0.0000 21.045887 1.054098 9.598458
265 1 0.0000 26.197126 2.733370 17.394026
266 2 0.0000 25.067540 2.391861 16.295932
267 2 0.0000 23.620575 0.253026 10.586407
268 2 0.0000 24.657646 5.794910 12.843097
269 1 0.0000 22.627211 0.433399 9.244671
270 2 0.0000 18.058156 8.409713 12.988457
271 1 0.0000 18.447976 8.046813 11.422266
272 2 0.0000 17.126922 8.060949 10.496683
273 2 0.0000 19.215250 9.468127 11.122314
274 2 0.0000 19.670397 13.118956 10.529280
275 1 0.0000 26.951457 11.062078 16.708100
276 2 0.0000 25.130574 10.460855 9.290866
277 2 0.0000 25.577732 6.846304 10.616541
278 1 0.0000 24.557429 7.169693 11.934823
279 2 0.0000 21.635576 12.133548 9.077797
280 1 0.0000 21.267243 12.474991 10.642380
281 2 0.0000 25.671401 8.179475 12.592110
282 2 0.0000 26.455345 12.555100 17.300320
283 2 0.0000 21.118176 10.935686 11.323257
284 2 0.0000 25.876331 9.874791 17.314341
285 2 0.0000 15.748823 4.497980 21.357415
286 1 0.0000 15.691127 3.284885 22.455176
287 2 0.0000 17.012141 2.224161 22.642934
288 2 0.0000 19.422607 4.808205 19.923030
289 2 0.0000 14.335512 3.392229 23.397363
290 2 0.0000 15.213585 5.088667 26.237881
291 1 0.0000 19.112679 3.830375 18.780041
292 2 0.0000 20.152931 2.483611 18.670900
293 2 0.0000 18.354511 6.496568 24.250231
294 1 0.0000 20.654340 0.082896 21.884173
295 2 0.0000 23.268223 1.098846 26.255883
296 2 0.0000 25.792410 3.315283 18.919714
297 2 0.0000 21.589573 2.248762 25.052631
298 1 0.0000 22.273914 2.425531 26.574087
299 2 0.0000 20.601292 0.358393 23.545604
300 2 0.0000 22.733303 3.897827 26.990379
301 2 0.0000 17.766794 13.338687 22.335807
302 2 0.0000 13.759078 8.969006 19.924236
303 2 0.0000 14.788208 12.951988 22.372784
304 1 0.0000 18.774776 12.108570 22.908468
305 2 0.0000 18.183257 11.233671 24.138284
306 2 0.0000 16.307602 12.028542 24.905131
307 2 0.0000 20.093084 9.208942 26.137084
308 2 0.0000 20.361244 11.982255 22.475126
309 2 0.0000 24.326800 7.797570 26.681167
310 2 0.0000 26.696868 12.459520 23.107726
311 2 0.0000 22.382312 10.539362 26.283780
312 1 0.0000 21.480705 9.459825 25.250474
313 2 0.0000 22.281691 8.051959 24.587205
314 2 0.0000 18.743868 16.411890 2.210062
315 2 0.0000 15.832705 17.270485 2.179300
316 1 0.0000 15.497932 15.906364 1.216845
317 1 0.0000 18.708373 14.961965 1.514934
318 2 0.0000 17.889712 16.174083 4.207390
319 1 0.0000 16.586287 15.089140 4.285252
320 2 0.0000 15.167379 14.511075 2.395375
321 2 0.0000 16.772688 14.973560 0.185570
322 2 0.0000 16.081890 15.773142 8.202511
323 1 0.0000 17.584370 15.124203 8.498769
324 2 0.0000 15.877607 14.562841 5.754990
325 2 0.0000 18.344922 14.176375 7.441576
326 2 0.0000 19.237789 13.777810 2.514551
327 2 0.0000 16.222077 20.061370 3.503075
328 2 0.0000 20.077704 19.762507 8.820463
329 1 0.0000 25.133895 17.590372 3.711807
330 2 0.0000 23.523323 17.965962 4.433261
331 1 0.0000 23.489489 17.277850 6.827142
332 2 0.0000 22.655256 15.998991 7.487254
333 2 0.0000 25.137147 16.782473 2.235295
334 2 0.0000 23.675428 18.306019 8.097995
335 2 0.0000 26.262924 17.375770 4.854998
336 2 0.0000 15.823651 20.329662 6.238465
337 1 0.0000 16.845649 20.580190 4.960822
338 2 0.0000 18.779118 20.638759 2.443758
339 2 0.0000 14.685170 26.329862 6.963525
340 1 0.0000 16.165463 26.337838 1.350357
341 2 0.0000 15.701607 25.231187 2.504276
342 2 0.0000 14.886086 22.747015 7.542122
343 2 0.0000 17.376689 22.123778 4.541980
344 2 0.0000 17.951511 23.331701 8.023590
345 2 0.0000 26.587382 21.506067 5.882712
346 2 0.0000 26.782857 24.714726 0.153020
347 2 0.0000 22.256066 24.767030 7.292778
348 2 0.0000 26.002566 26.736435 6.269118
349 2 0.0000 15.754048 17.340499 11.589004
350 2 0.0000 19.307822 18.215898 10.983281
351 1 0.0000 14.139176 17.109482 11.137449
352 1 0.0000 19.586526 19.712466 10.402720
353 2 0.0000 13.660148 18.579468 10.449847
354 2 0.0000 20.846838 20.111623 11.466846
355 1 0.0000 26.254642 14.521387 11.541314
356 2 0.0000 25.173808 15.347433 12.555812
357 2 0.0000 24.246839 16.381337 15.998821
358 2 0.0000 24.635346 19.204361 12.818494
359 1 0.0000 24.391621 14.804087 16.561086
360 2 0.0000 25.771615 15.208887 17.305396
361 2 0.0000 22.348669 14.187860 17.810145
362 1 0.0000 24.438008 20.044199 11.334681
363 2 0.0000 25.891808 13.759507 10.132607
364 2 0.0000 17.112634 25.406926 9.347301
365 2 0.0000 14.464800 26.424158 16.205078
366 2 0.0000 15.077984 24.703842 11.787710
367 1 0.0000 14.546859 24.306497 13.308615
368 2 0.0000 17.749946 23.267231 10.729118
369 1 0.0000 17.046995 23.753558 9.324391
370 2 0.0000 17.118891 26.935760 16.452537
371 2 0.0000 24.786554 23.223131 10.670683
372 2 0.0000 26.627696 21.140985 13.753718
373 2 0.0000 25.887367 20.443239 10.668628
374 1 0.0000 26.758438 23.752070 17.231269
375 2 0.0000 22.499455 20.658319 9.985621
376 2 0.0000 26.008334 22.438472 16.569133
377 1 0.0000 25.786180 24.044199 9.609427
378 2 0.0000 25.183278 25.599133 9.634846
379 1 0.0000 15.660868 26.974622 17.256947
380 2 0.0000 15.928081 15.417942 22.011628
381 2 0.0000 17.489281 16.165325 20.668393
382 1 0.0000 17.212306 17.788330 20.561067
383 2 0.0000 17.869870 18.604659 19.228034
384 2 0.0000 15.813858 18.206689 21.376169
385 2 0.0000 14.242785 16.999378 20.421421
386 1 0.0000 20.001725 16.579400 25.766599
387 1 0.0000 16.186672 13.775449 22.108840
388 2 0.0000 20.072610 14.914002 26.541408
389 2 0.0000 17.453829 20.128691 26.843779
390 1 0.0000 13.599183 17.734347 24.873816
391 2 0.0000 13.773736 17.870695 23.223951
392 2 0.0000 20.526527 17.253310 24.369263
393 2 0.0000 25.530294 18.086827 24.795504
394 2 0.0000 25.688719 18.653151 21.952252
395 1 0.0000 26.585095 17.956303 26.094159
396 2 0.0000 23.047462 16.167252 26.408903
397 2 0.0000 21.123474 17.159399 26.790834
398 2 0.0000 26.357530 16.558421 26.809513
399 2 0.0000 13.846835 23.194911 23.059813
400 2 0.0000 16.293575 25.869061 26.759782
401 2 0.0000 14.800368 25.471177 23.849985
402 1 0.0000 15.136036 24.222484 22.811758
403 2 0.0000 16.619745 23.451362 22.798018
404 1 0.0000 18.309664 23.977869 20.199705
405 2 0.0000 18.528236 24.851633 21.587695
406 2 0.0000 17.299759 24.438278 18.978713
407 2 0.0000 20.644052 25.476227 21.577749
408 2 0.0000 26.010002 24.616206 18.474943
409 2 0.0000 25.623458 25.475324 26.981370
