LAMMPS data file via write_data, version 29 Aug 2024, timestep = 100000, units = real

300 atoms
2 atom types

-78.28205090231359 105.28205090498415 xlo xhi
-78.28205090231359 105.28205090498415 ylo yhi
-78.28205090231359 105.28205090498415 zlo zhi

Masses

1 28.0855
2 15.999


Atoms # charge

1 2 -0.800000 3.965890 19.917716 25.817015
2 1 1.600000 -71.846525 -66.678057 -73.813413
3 2 -0.800000 3.737949 20.384043 26.185358
4 2 -0.800000 -13.739348 22.197754 -0.489995
5 2 -0.800000 88.768783 53.798991 24.249623
6 1 1.600000 7.342670 -34.441800 -64.764339
7 2 -0.800000 88.920433 53.658826 24.144069
8 2 -0.800000 -8.978704 10.860817 -52.633535
9 2 -0.800000 -50.024379 -75.628682 -43.443075
10 1 1.600000 -76.938422 -49.780073 -30.720862
11 2 -0.800000 -76.887019 -48.171775 -30.650758
12 1 1.600000 -77.998763 -47.118383 -30.074421
13 2 -0.800000 -18.075443 38.207612 33.590577
14 2 -0.800000 87.498808 61.040745 44.593817
15 1 1.600000 2.126439 -21.947517 -25.077124
16 2 -0.800000 87.675933 60.988348 44.520091
17 2 -0.800000 87.055834 60.693418 43.028611
18 2 -0.800000 24.361253 -5.835455 96.883243
19 2 -0.800000 24.450287 -5.552453 97.858172
20 1 1.600000 -47.403614 -74.990464 11.917367
21 2 -0.800000 7.198552 80.505980 111.065584
22 2 -0.800000 85.949079 85.036880 106.030480
23 2 -0.800000 -70.335138 0.971907 29.509556
24 2 -0.800000 9.293646 78.806985 109.409731
25 1 1.600000 -70.490913 0.093321 30.827652
26 2 -0.800000 -69.208967 0.536272 31.634746
27 2 -0.800000 -71.744269 0.724829 31.577998
28 2 -0.800000 7.230084 81.377967 107.824177
29 1 1.600000 -72.575057 3.590739 29.405412
30 2 -0.800000 -73.006640 2.773663 30.708981
31 1 1.600000 -69.871786 2.504827 29.158098
32 2 -0.800000 -71.061623 3.476242 29.054762
33 2 -0.800000 -69.023797 2.753879 30.504445
34 1 1.600000 -68.376606 1.885748 31.657796
35 1 1.600000 6.840767 7.107910 28.857387
36 2 -0.800000 85.866250 85.015325 105.854224
37 1 1.600000 8.507337 6.291254 26.523402
38 2 -0.800000 7.608256 7.457290 27.380602
39 1 1.600000 -72.504533 2.067481 32.092284
40 2 -0.800000 -68.874329 2.563000 33.058040
41 2 -0.800000 -71.565254 2.886122 33.005386
42 1 1.600000 -70.240717 2.890992 33.789844
43 1 1.600000 1.061788 0.679667 54.362299
44 2 -0.800000 79.495137 80.121831 132.438732
45 2 -0.800000 79.354295 80.248992 132.263149
46 2 -0.800000 1.137778 2.294422 54.985598
47 1 1.600000 1.263021 3.602145 53.858089
48 2 -0.800000 49.630797 22.433420 158.191654
49 1 1.600000 -50.032238 -44.324515 68.412389
50 2 -0.800000 49.975649 22.384490 157.738454
51 2 -0.800000 22.627818 9.822041 126.150249
52 1 1.600000 -6.772378 -66.989233 90.733847
53 2 -0.800000 -63.733774 -50.473857 91.767119
54 2 -0.800000 8.106681 -47.637708 91.758075
55 2 -0.800000 -11.588786 4.740597 102.037380
56 1 1.600000 -30.426351 39.791240 -77.602434
57 2 -0.800000 -31.146682 40.864322 -76.765085
58 2 -0.800000 46.772940 118.657129 0.974855
59 1 1.600000 -32.459601 41.705939 -76.714902
60 2 -0.800000 -32.198854 43.253419 -77.041888
61 2 -0.800000 -33.276541 41.041845 -77.991416
62 2 -0.800000 61.709948 106.290099 72.475710
63 1 1.600000 -14.859961 98.439743 -54.050793
64 2 -0.800000 63.338237 175.329085 24.712096
65 2 -0.800000 -15.893249 97.116096 -53.946287
66 2 -0.800000 -13.382791 97.822451 -53.819119
67 2 -0.800000 64.370136 176.147872 24.627793
68 1 1.600000 -12.971301 96.936942 -52.387337
69 2 -0.800000 -14.313101 96.142690 -52.192418
70 2 -0.800000 63.866654 174.447055 25.637986
71 1 1.600000 -15.710357 95.950455 -52.938123
72 2 -0.800000 88.827594 174.277513 50.884930
73 1 1.600000 9.427654 96.055891 -26.534051
74 2 -0.800000 89.167810 174.933973 51.331085
75 1 1.600000 12.211182 96.470472 -27.385765
76 2 -0.800000 10.735166 95.822238 -27.412068
77 2 -0.800000 61.624919 106.478691 72.921663
78 1 1.600000 -32.638028 41.061250 -18.284825
79 2 -0.800000 61.819065 106.116650 73.810379
80 2 -0.800000 -13.267368 33.180905 -2.441307
81 1 1.600000 -0.654869 15.092452 7.065926
82 2 -0.800000 -0.805081 15.027179 8.668062
83 1 1.600000 -0.342816 14.242962 9.948988
84 2 -0.800000 89.323612 83.024500 106.230449
85 2 -0.800000 -19.554108 79.815158 12.962256
86 2 -0.800000 59.426870 158.379050 91.739874
87 1 1.600000 -18.688790 78.482032 13.092694
88 2 -0.800000 -17.143692 78.633668 12.432976
89 1 1.600000 -16.161393 79.843941 12.777352
90 2 -0.800000 61.474584 158.024924 92.179794
91 1 1.600000 -18.762434 81.347902 13.277884
92 2 -0.800000 -17.282446 81.042644 12.516067
93 2 -0.800000 -18.429168 78.695041 14.636112
94 1 1.600000 -17.567368 79.945658 15.511849
95 2 -0.800000 -19.342677 78.725289 18.408413
96 2 -0.800000 -16.271747 79.974290 14.478471
97 2 -0.800000 -18.443952 81.134143 14.842182
98 2 -0.800000 -34.473094 82.285274 23.823600
99 1 1.600000 -60.435992 89.937011 24.860731
100 2 -0.800000 -60.704214 88.509473 25.561679
101 2 -0.800000 2.768635 156.976930 111.715074
102 2 -0.800000 -60.634490 90.960069 26.077672
103 2 -0.800000 2.811547 156.814109 111.841065
104 2 -0.800000 -60.947517 89.385988 27.896698
105 1 1.600000 -61.153405 88.043468 26.992649
106 1 1.600000 -60.647262 90.955903 27.646960
107 2 -0.800000 6.100131 139.824436 126.792493
108 2 -0.800000 6.353736 139.330558 126.964338
109 1 1.600000 -52.816324 56.221815 57.849775
110 2 -0.800000 36.098983 128.690005 159.750884
111 2 -0.800000 -59.706137 69.594274 94.750431
112 2 -0.800000 -32.943564 41.865116 103.080777
113 1 1.600000 -33.097478 39.913987 104.494467
114 2 -0.800000 46.414288 118.105600 183.465243
115 2 -0.800000 -31.668859 39.420388 105.040871
116 2 -0.800000 21.863598 101.482207 195.151377
117 1 1.600000 -32.108601 44.293020 105.254604
118 1 1.600000 34.465344 -7.677013 -76.840122
119 1 1.600000 36.631170 -6.406011 -75.227479
120 2 -0.800000 35.972926 -7.310788 -76.389274
121 2 -0.800000 113.938671 71.194931 2.341238
122 2 -0.800000 113.795094 71.029100 2.176486
123 2 -0.800000 83.299825 12.517377 -77.680387
124 2 -0.800000 84.041223 11.702092 -77.419666
125 1 1.600000 37.931303 -60.226963 -56.012687
126 2 -0.800000 37.885678 -61.744237 -56.224682
127 2 -0.800000 40.222586 -62.496100 -55.217460
128 2 -0.800000 116.997139 15.306456 23.850326
129 1 1.600000 38.748848 -63.037167 -55.682455
130 2 -0.800000 38.119663 -63.546570 -54.302936
131 2 -0.800000 37.995090 -59.909969 -54.474701
132 1 1.600000 40.963763 -61.985967 -53.876177
133 2 -0.800000 37.040753 -58.890513 -56.203804
134 2 -0.800000 114.771186 21.423700 23.508446
135 1 1.600000 37.142125 -57.281765 -56.237717
136 2 -0.800000 36.741547 -56.650637 -54.811860
137 2 -0.800000 39.204747 -59.552709 -56.702689
138 2 -0.800000 38.790802 -57.248230 -56.401068
139 1 1.600000 40.027403 -58.159049 -56.532178
140 2 -0.800000 40.762157 -58.726471 -54.965112
141 2 -0.800000 41.670623 -57.401307 -56.051832
142 1 1.600000 42.013279 -57.824206 -54.386483
143 2 -0.800000 43.185634 -58.822109 -54.002690
144 2 -0.800000 146.069341 47.239797 21.208447
145 1 1.600000 67.142025 -32.342807 -56.926779
146 2 -0.800000 67.640236 -30.847509 -56.539609
147 2 -0.800000 67.819336 -33.096217 -58.099317
148 1 1.600000 68.531545 -29.712020 -57.156922
149 1 1.600000 69.159518 -33.214988 -58.962043
150 2 -0.800000 147.271553 46.950175 20.259704
151 2 -0.800000 180.548844 76.368418 21.594614
152 2 -0.800000 102.834263 -2.239842 -56.351481
153 1 1.600000 102.180075 -3.674020 -56.827814
154 2 -0.800000 180.881898 75.992478 21.668013
155 1 1.600000 103.090785 -0.734601 -56.667075
156 2 -0.800000 102.211257 0.361318 -55.796096
157 1 1.600000 102.411058 1.814546 -55.394356
158 2 -0.800000 182.449711 55.623426 35.511413
159 2 -0.800000 176.281878 84.255152 50.698844
160 2 -0.800000 42.504644 -61.450039 -53.807528
161 2 -0.800000 40.123378 -60.679032 -53.587812
162 1 1.600000 38.735450 -60.114263 -53.142933
163 1 1.600000 38.496279 -63.204145 -52.755280
164 2 -0.800000 38.225757 -61.578855 -52.655137
165 2 -0.800000 40.077588 -62.899410 -52.894777
166 1 1.600000 43.287189 -60.182993 -53.143508
167 2 -0.800000 123.704871 19.680711 27.234101
168 2 -0.800000 44.616198 -60.487434 -52.245988
169 1 1.600000 37.013836 -56.386642 -53.272487
170 2 -0.800000 41.053692 -57.193605 -53.239485
171 2 -0.800000 38.497683 -56.337084 -52.736377
172 1 1.600000 39.665700 -57.300423 -52.295381
173 2 -0.800000 42.396371 -59.688233 -51.848404
174 2 -0.800000 43.540149 -57.403715 -51.074309
175 2 -0.800000 38.957831 -58.752074 -52.431508
176 2 -0.800000 119.245550 20.264029 26.871321
177 1 1.600000 42.705414 -58.743836 -50.542534
178 2 -0.800000 44.060819 -59.527446 -49.937300
179 1 1.600000 45.358037 -59.972926 -50.835110
180 1 1.600000 45.039945 -57.151034 -51.523705
181 2 -0.800000 45.780228 -58.463149 -51.270004
182 2 -0.800000 14.453660 -40.990360 -49.552791
183 1 1.600000 32.638026 -75.237704 -42.111441
184 2 -0.800000 131.028947 -7.727337 26.942017
185 2 -0.800000 131.280836 -7.826719 27.028063
186 2 -0.800000 106.931400 54.988802 34.642222
187 2 -0.800000 106.939255 55.493766 34.663425
188 1 1.600000 28.412636 -23.579389 -44.795942
189 2 -0.800000 108.592994 28.820175 34.662385
190 2 -0.800000 28.000780 -22.769941 -43.450489
191 1 1.600000 29.156739 -22.392531 -42.333940
192 2 -0.800000 16.616002 -12.747503 -43.962811
193 1 1.600000 16.132494 -13.904844 -44.943036
194 2 -0.800000 14.657087 -14.278114 -44.678823
195 1 1.600000 16.470814 -12.325497 -42.413785
196 1 1.600000 13.740811 -15.122872 -43.653143
197 2 -0.800000 92.876069 8.774839 0.726250
198 1 1.600000 92.355375 11.937419 0.874398
199 2 -0.800000 171.723896 89.909886 79.786780
200 2 -0.800000 93.331792 11.171532 -0.281359
201 1 1.600000 94.007906 9.696756 -0.045457
202 2 -0.800000 94.983774 10.096318 1.253581
203 2 -0.800000 131.890373 80.479612 86.602117
204 1 1.600000 52.664140 2.514755 6.831339
205 2 -0.800000 132.036637 81.623588 86.046195
206 2 -0.800000 90.448769 7.845503 2.815350
207 2 -0.800000 91.541509 10.787003 1.614104
208 1 1.600000 92.143497 9.362942 2.096684
209 1 1.600000 94.514743 10.984986 2.515242
210 2 -0.800000 93.750953 12.129785 1.727949
211 2 -0.800000 93.378249 9.819814 3.043314
212 2 -0.800000 56.214936 0.079509 8.535440
213 1 1.600000 54.833954 4.757925 8.823715
214 2 -0.800000 53.327747 1.533250 7.815697
215 1 1.600000 54.450438 1.766904 8.912871
216 2 -0.800000 55.041113 3.216339 8.569309
217 2 -0.800000 123.679056 69.522184 98.754165
218 1 1.600000 34.789579 -24.541218 29.202985
219 2 -0.800000 33.681046 -25.010131 30.259143
220 2 -0.800000 112.621903 53.305917 108.940118
221 2 -0.800000 112.212606 53.531451 108.926216
222 1 1.600000 36.163654 -22.364037 31.748682
223 2 -0.800000 108.959265 64.288416 118.627294
224 1 1.600000 33.283923 -25.591096 31.786065
225 2 -0.800000 109.130680 65.407454 117.767450
226 2 -0.800000 51.878073 -67.047412 40.420656
227 2 -0.800000 52.859447 -67.243844 41.085610
228 2 -0.800000 61.875215 -3.982666 41.893028
229 2 -0.800000 61.017720 -4.033349 42.736013
230 2 -0.800000 19.102468 -5.267920 48.977132
231 2 -0.800000 22.173608 -5.533644 46.449359
232 2 -0.800000 25.477568 -5.169311 47.898116
233 1 1.600000 21.946195 -6.283919 47.818757
234 2 -0.800000 100.205128 73.565119 126.595445
235 1 1.600000 24.700517 -5.960990 49.095009
236 2 -0.800000 23.323779 -6.596153 48.577300
237 2 -0.800000 24.077598 -3.626156 46.132222
238 1 1.600000 25.373820 -3.699025 47.166375
239 1 1.600000 22.545172 -4.019149 45.939541
240 2 -0.800000 22.072056 -3.133586 47.162847
241 1 1.600000 21.628018 -3.373003 48.757186
242 2 -0.800000 21.601944 -5.090235 48.789212
243 2 -0.800000 22.992247 -2.732159 49.531475
244 1 1.600000 24.494313 -3.066873 49.875988
245 2 -0.800000 25.320324 -2.663959 48.408062
246 2 -0.800000 24.367126 -4.607426 49.974368
247 2 -0.800000 124.953827 55.398107 150.901967
248 2 -0.800000 23.214865 -13.683244 61.556909
249 2 -0.800000 78.982338 -8.384683 86.098656
250 2 -0.800000 147.420806 33.773516 177.571991
251 1 1.600000 68.417492 -45.208267 98.261870
252 2 -0.800000 68.429751 -44.478973 96.868265
253 1 1.600000 71.716605 -43.345211 97.914055
254 2 -0.800000 70.873844 -43.190467 96.525853
255 1 1.600000 69.300720 -43.458375 96.092675
256 2 -0.800000 151.316589 8.119248 189.013592
257 2 -0.800000 71.918705 -44.840813 98.453201
258 2 -0.800000 69.775740 -45.984894 98.395221
259 2 -0.800000 68.695718 -43.996356 99.332687
260 1 1.600000 69.833304 -43.622462 100.303034
261 2 -0.800000 70.755134 -42.979747 99.131026
262 2 -0.800000 70.672790 -45.019592 100.497592
263 1 1.600000 71.165344 -45.940599 99.247794
264 1 1.600000 46.845571 74.028747 -77.820222
265 2 -0.800000 45.320394 73.962755 -77.804711
266 2 -0.800000 123.927739 152.516019 0.120177
267 1 1.600000 73.566376 86.374313 -60.447955
268 2 -0.800000 153.581007 162.092686 19.512500
269 1 1.600000 74.859768 82.793289 -60.275143
270 1 1.600000 75.234358 83.638422 -57.466497
271 2 -0.800000 75.074998 82.644283 -58.723352
272 2 -0.800000 152.722301 159.713907 5.769193
273 1 1.600000 74.279444 49.844252 0.159119
274 2 -0.800000 153.864947 128.359090 79.123941
275 2 -0.800000 75.171912 48.911215 1.203840
276 2 -0.800000 77.417191 50.291961 0.773745
277 2 -0.800000 153.290879 131.335543 121.030319
278 1 1.600000 76.854004 51.644157 0.043630
279 2 -0.800000 153.426432 131.420889 120.853452
280 2 -0.800000 75.408184 50.900687 -0.370487
281 1 1.600000 76.823943 48.941873 1.442011
282 2 -0.800000 89.429560 73.934429 30.535455
283 2 -0.800000 89.032584 74.878278 29.905800
284 2 -0.800000 58.695500 15.438310 42.153012
285 1 1.600000 92.493984 66.411564 39.696668
286 2 -0.800000 93.936281 67.260712 39.462667
287 1 1.600000 94.225793 68.805349 39.891293
288 2 -0.800000 70.276193 22.881581 68.473021
289 2 -0.800000 36.034079 65.423727 66.640054
290 2 -0.800000 104.055927 62.731136 66.687843
291 1 1.600000 73.333650 54.842861 84.987198
292 2 -0.800000 72.794827 56.389553 84.875391
293 1 1.600000 74.690126 80.136499 95.641173
294 2 -0.800000 75.716214 78.976297 95.931540
295 1 1.600000 43.999960 74.069733 104.871740
296 2 -0.800000 46.808583 75.314182 102.700928
297 2 -0.800000 45.359098 73.614850 100.840560
298 2 -0.800000 44.304473 74.456038 103.385779
299 1 1.600000 45.495138 74.378370 102.337773
300 2 -0.800000 47.459296 75.179442 104.776472
