=== Starting LAMMPS Sol-Gel Run ===
pH value: 6.5
Date:     Mon Jun 22 08:47:52 PM WIB 2026
LAMMPS (29 Aug 2024)
  using 4 OpenMP thread(s) per MPI task
Reading data file ...
  orthogonal box = (0 0 0) to (36.831024 36.831024 36.831024)
  2 by 2 by 3 MPI processor grid
  reading atoms ...
  2199 atoms
  read_data CPU = 0.006 seconds
=== Phase 1: Energy Minimization ===

CITE-CITE-CITE-CITE-CITE-CITE-CITE-CITE-CITE-CITE-CITE-CITE-CITE

Your simulation uses code contributions which should be cited:
- Type Label Framework: https://doi.org/10.1021/acs.jpcb.3c08419
- pair reaxff command: doi:10.1016/j.parco.2011.08.005
- fix qeq/reaxff command: doi:10.1016/j.parco.2011.08.005
The log file lists these citations in BibTeX format.

CITE-CITE-CITE-CITE-CITE-CITE-CITE-CITE-CITE-CITE-CITE-CITE-CITE

Neighbor list info ...
  update: every = 1 steps, delay = 0 steps, check = yes
  max neighbors/atom: 2000, page size: 100000
  master list distance cutoff = 12
  ghost atom cutoff = 12
  binsize = 6, bins = 7 7 7
  2 neighbor lists, perpetual/occasional/extra = 2 0 0
  (1) pair reaxff, perpetual
      attributes: half, newton off, ghost
      pair build: half/bin/ghost/newtoff
      stencil: full/ghost/bin/3d
      bin: standard
  (2) fix qeq/reaxff, perpetual, copy from (1)
      attributes: half, newton off
      pair build: copy
      stencil: none
      bin: none
Setting up cg style minimization ...
  Unit style    : real
  Current step  : 0
Per MPI rank memory allocation (min/avg/max) = 339.2 | 343.8 | 347.5 Mbytes
   Step          Temp          Press          PotEng         KinEng         TotEng        Density         Volume        Atoms   
         0   0              159017.88     -115437.99      0             -115437.99      0.57870552     49962.18            2199 
        63   0             -2639.7041     -177976.41      0             -177976.41      0.57870552     49962.18            2199 
Loop time of 1.35145 on 48 procs for 63 steps with 2199 atoms

96.4% CPU use with 12 MPI tasks x 4 OpenMP threads

Minimization stats:
  Stopping criterion = energy tolerance
  Energy initial, next-to-last, final = 
     -115437.986091036  -177971.293967855  -177976.412682088
  Force two-norm initial, final = 8557.8492 531.97157
  Force max component initial, final = 1085.9645 192.70048
  Final line search alpha, max atom move = 0.00033721133 0.064980786
  Iterations, force evaluations = 63 84

MPI task timing breakdown:
Section |  min time  |  avg time  |  max time  |%varavg| %total
---------------------------------------------------------------
Pair    | 0.92112    | 0.95372    | 0.99009    |   1.9 | 70.57
Neigh   | 0.0058628  | 0.0059657  | 0.0061024  |   0.1 |  0.44
Comm    | 0.024623   | 0.060783   | 0.093529   |   7.7 |  4.50
Output  | 0          | 0          | 0          |   0.0 |  0.00
Modify  | 0.32759    | 0.32773    | 0.32788    |   0.0 | 24.25
Other   |            | 0.00325    |            |       |  0.24

Nlocal:         183.25 ave         202 max         162 min
Histogram: 1 0 1 0 3 2 3 1 0 1
Nghost:        2684.58 ave        2754 max        2611 min
Histogram: 1 0 1 2 2 2 2 1 0 1
Neighs:        48343.5 ave       53361 max       41763 min
Histogram: 1 0 1 0 1 3 4 1 0 1

Total # of neighbors = 580122
Ave neighs/atom = 263.81173
Neighbor list builds = 1
Dangerous builds = 0
=== Phase 2: Compression to Liquid Density at 300 K ===
Setting up Verlet run ...
  Unit style    : real
  Current step  : 63
  Time step     : 0.1
Per MPI rank memory allocation (min/avg/max) = 338.1 | 342.7 | 346.4 Mbytes
   Step          Temp          Press          PotEng         KinEng         TotEng        Density         Volume        Atoms   
        63   300           -841.36758     -177976.41      1965.5461     -176010.87      0.57870552     49962.18            2199 
       500   332.10032      562.70782     -178153.95      2175.8617     -175978.09      0.58895026     49093.092           2199 
      1000   417.65935     -471.33748     -178787.82      2736.4291     -176051.39      0.60097073     48111.144           2199 
      1500   487.96995      273.08833     -179559.89      3197.0915     -176362.8       0.61332056     47142.378           2199 
      2000   513.33207      1331.2075     -180177.24      3363.2596     -176813.98      0.6260111      46186.704           2199 
      2500   486.39795      655.86476     -180522.53      3186.7921     -177335.74      0.63905418     45244.034           2199 
      3000   514.58727      713.48808     -181239.36      3371.4834     -177867.88      0.65246214     44314.279           2199 
      3500   486.41689      25.27242      -181634.88      3186.9162     -178447.97      0.66624782     43397.349           2199 
      4000   479.32839      1694.8106     -182173.02      3140.4735     -179032.54      0.68042461     42493.156           2199 
      4500   438.89683      2456.2289     -182458.39      2875.5732     -179582.82      0.69500649     41601.61            2199 
      5000   426.42707     -458.85795     -182886.74      2793.8736     -180092.87      0.71000803     40722.623           2199 
      5500   393.24492      2715.1572     -183142.8       2576.4702     -180566.33      0.72544443     39856.105           2199 
      6000   378.08494      1350.0746     -183456.79      2477.1447     -180979.64      0.74133157     39001.967           2199 
      6500   372.73745      1791.1189     -183787.37      2442.1089     -181345.26      0.75768602     38160.12            2199 
      7000   348.59167      4234.4958     -183956         2283.9101     -181672.09      0.77452508     37330.475           2199 
      7500   356.89282      1340.9508     -184313.9       2338.2977     -181975.6       0.79186685     36512.943           2199 
      8000   345.6765       1921.8199     -184558.48      2264.8104     -182293.67      0.80973022     35707.435           2199 
      8500   334.94726      2190.6682     -184782.92      2194.5143     -182588.41      0.82813495     34913.862           2199 
      9000   327.5606       2415.2057     -184981.78      2146.1182     -182835.66      0.8471017      34132.135           2199 
      9500   312.923        2052.1747     -185109.68      2050.2153     -183059.47      0.8666521      33362.164           2199 
     10000   311.43171      2394.1681     -185285.66      2040.4447     -183245.22      0.88680877     32603.861           2199 
     10500   308.02797      2395.3713     -185432.82      2018.1439     -183414.68      0.90759538     31857.136           2199 
     11000   305.19537      3515.9663     -185546.89      1999.5853     -183547.31      0.92903676     31121.9             2199 
     11500   293.1962       3052.1018     -185585.24      1920.9689     -183664.27      0.95115887     30398.065           2199 
     12000   299.57412      5476.3287     -185705.72      1962.7558     -183742.96      0.97398895     29685.542           2199 
     12500   294.0617       6172.0529     -185732.24      1926.6395     -183805.6       0.99755555     28984.24            2199 
     13000   304.36697      2624.3706     -185834.04      1994.1577     -183839.88      1.0218886      28294.071           2199 
     13500   292.38162      4755.5408     -185772.57      1915.6319     -183856.94      1.0470196      27614.947           2199 
     14000   304.71783      6893.0394     -185877.9       1996.4565     -183881.45      1.0729813      26946.777           2199 
     14500   310.43998      7316.7701     -185966.84      2033.947      -183932.9       1.0998086      26289.474           2199 
     15000   303.42145      7437.3899     -185983.6       1987.9629     -183995.64      1.1275377      25642.947           2199 
     15500   310.26849      12312.204     -186084.17      2032.8234     -184051.34      1.1562069      25007.108           2199 
     16000   307.25053      14794.041     -186108.4       2013.0503     -184095.35      1.1858563      24381.867           2199 
     16500   311.27671      12857.106     -186146.01      2039.4291     -184106.58      1.2165281      23767.136           2199 
     17000   313.6972       17886.982     -186186.31      2055.2878     -184131.03      1.2482669      23162.825           2199 
     17500   317.68812      22675.986     -186209.36      2081.4355     -184127.92      1.2811195      22568.846           2199 
     18000   312.63403      25344.991     -186159.08      2048.3221     -184110.76      1.3151351      21985.11            2199 
     18500   333.76058      33549.949     -186259.22      2186.7394     -184072.48      1.3503657      21411.526           2199 
     19000   348.45675      44006.648     -186297.27      2283.0261     -184014.25      1.3868659      20848.007           2199 
     19500   356.64988      51346.893     -186281.22      2336.706      -183944.51      1.4246935      20294.462           2199 
     20000   372.32514      65088.353     -186258.32      2439.4075     -183818.92      1.4639095      19750.804           2199 
     20063   377.22279      68409.293     -186265.56      2471.496      -183794.07      1.4689524      19683               2199 
Loop time of 525.081 on 48 procs for 20000 steps with 2199 atoms

Performance: 0.329 ns/day, 72.928 hours/ns, 38.089 timesteps/s, 83.759 katom-step/s
99.2% CPU use with 12 MPI tasks x 4 OpenMP threads

MPI task timing breakdown:
Section |  min time  |  avg time  |  max time  |%varavg| %total
---------------------------------------------------------------
Pair    | 402.08     | 426.26     | 436.1      |  40.3 | 81.18
Neigh   | 1.7604     | 1.7775     | 1.7991     |   0.9 |  0.34
Comm    | 11.832     | 21.681     | 45.852     | 178.8 |  4.13
Output  | 0.0066398  | 0.0074954  | 0.0086674  |   0.6 |  0.00
Modify  | 74.993     | 75.02      | 75.053     |   0.2 | 14.29
Other   |            | 0.3306     |            |       |  0.06

Nlocal:         183.25 ave         191 max         172 min
Histogram: 1 0 2 0 1 2 1 2 1 2
Nghost:        4947.25 ave        5021 max        4872 min
Histogram: 1 1 1 1 1 3 0 3 0 1
Neighs:         131546 ave      136766 max      122322 min
Histogram: 1 1 1 0 1 0 1 1 3 3

Total # of neighbors = 1578546
Ave neighs/atom = 717.8472
Neighbor list builds = 140
Dangerous builds = 0
Setting up Verlet run ...
  Unit style    : real
  Current step  : 20063
  Time step     : 0.1
Per MPI rank memory allocation (min/avg/max) = 357.5 | 362 | 366.4 Mbytes
   Step          Temp          Press          PotEng         KinEng         TotEng        Density         Volume        Atoms   
     20063   377.22279      68548.312     -186264.58      2471.496      -183793.09      1.4689524      19683               2199 
     20500   349.44773      62233.589     -186336.05      2289.5188     -184046.53      1.4689524      19683               2199 
     21000   328.28454      54457.7       -186444.7       2150.8614     -184293.84      1.4689524      19683               2199 
     21500   323.03504      50904.461     -186631.57      2116.4676     -184515.1       1.4689524      19683               2199 
     22000   305.65993      47825.031     -186704.67      2002.629      -184702.04      1.4689524      19683               2199 
     22500   300.82028      41675.565     -186821.06      1970.9205     -184850.14      1.4689524      19683               2199 
     23000   293.28745      42458.351     -186891.47      1921.5667     -184969.91      1.4689524      19683               2199 
     23500   293.4679       38917.865     -186970.87      1922.749      -185048.12      1.4689524      19683               2199 
     24000   286.2201       40947.04      -186960.91      1875.2627     -185085.65      1.4689524      19683               2199 
     24500   291.74684      38603.885     -187022.3       1911.4729     -185110.82      1.4689524      19683               2199 
     25000   289.79824      38445.797     -187009.16      1898.7061     -185110.46      1.4689524      19683               2199 
     25500   297.09597      41379.003     -187034.22      1946.5195     -185087.7       1.4689524      19683               2199 
     26000   305.8184       37366.82      -187052.79      2003.6673     -185049.12      1.4689524      19683               2199 
     26500   304.85923      38565.899     -187011.3       1997.383      -185013.92      1.4689524      19683               2199 
     27000   307.28573      38728.291     -187012.57      2013.281      -184999.29      1.4689524      19683               2199 
     27500   302.80992      43247.1       -186998.58      1983.9562     -185014.62      1.4689524      19683               2199 
     28000   305.58486      36557.829     -187062.52      2002.1371     -185060.38      1.4689524      19683               2199 
     28500   304.24046      39545.953     -187108.36      1993.3289     -185115.04      1.4689524      19683               2199 
     29000   317.65011      38708.616     -187242.87      2081.1865     -185161.68      1.4689524      19683               2199 
     29500   305.02509      39030.611     -187230.33      1998.4696     -185231.86      1.4689524      19683               2199 
     30000   303.14279      35418.134     -187315.11      1986.1371     -185328.97      1.4689524      19683               2199 
     30063   304.63233      39240.734     -187333.26      1995.8964     -185337.36      1.4689524      19683               2199 
Loop time of 465.217 on 48 procs for 10000 steps with 2199 atoms

Performance: 0.186 ns/day, 129.227 hours/ns, 21.495 timesteps/s, 47.268 katom-step/s
99.4% CPU use with 12 MPI tasks x 4 OpenMP threads

MPI task timing breakdown:
Section |  min time  |  avg time  |  max time  |%varavg| %total
---------------------------------------------------------------
Pair    | 386.65     | 395.25     | 400.81     |  23.6 | 84.96
Neigh   | 0.49709    | 0.50106    | 0.50449    |   0.3 |  0.11
Comm    | 5.3483     | 10.872     | 19.428     | 142.1 |  2.34
Output  | 0.0027485  | 0.0031782  | 0.003784   |   0.5 |  0.00
Modify  | 58.313     | 58.37      | 58.431     |   0.5 | 12.55
Other   |            | 0.2169     |            |       |  0.05

Nlocal:         183.25 ave         200 max         159 min
Histogram: 1 0 1 0 1 1 5 0 2 1
Nghost:        5019.58 ave        5087 max        4965 min
Histogram: 3 1 1 1 1 1 0 1 2 1
Neighs:         133268 ave      144377 max      116041 min
Histogram: 1 0 1 0 0 3 3 1 2 1

Total # of neighbors = 1599210
Ave neighs/atom = 727.2442
Neighbor list builds = 17
Dangerous builds = 0
=== Phase 3: Heating 300 -> 2000 K ===
Setting up Verlet run ...
  Unit style    : real
  Current step  : 30063
  Time step     : 0.1
Per MPI rank memory allocation (min/avg/max) = 357.6 | 362.2 | 367.3 Mbytes
   Step          Temp          Press          PotEng         KinEng         TotEng        Density         Volume        Atoms   
     30063   304.63233      39241.042     -187333.26      1995.8964     -185337.36      1.4689524      19683               2199 
     30500   301.92137      40291.722     -187305.44      1978.1346     -185327.31      1.4689524      19683               2199 
     31000   303.9016       33954.146     -187286.71      1991.1087     -185295.61      1.4689524      19683               2199 
     31500   310.26996      39671.53      -187269.01      2032.8331     -185236.18      1.4689524      19683               2199 
     32000   315.04681      42265.379     -187231.81      2064.1301     -185167.68      1.4689524      19683               2199 
     32500   316.30884      42245.709     -187192.8       2072.3987     -185120.4       1.4689524      19683               2199 
     33000   331.84086      39632.801     -187213.72      2174.1618     -185039.56      1.4689524      19683               2199 
     33500   339.9304       43156.152     -187166.53      2227.1629     -184939.36      1.4689524      19683               2199 
     34000   345.48024      41858.273     -187111.69      2263.5245     -184848.17      1.4689524      19683               2199 
     34500   351.60083      39775.704     -187045.58      2303.6255     -184741.96      1.4689524      19683               2199 
     35000   356.70778      42919.932     -186959.99      2337.0853     -184622.91      1.4689524      19683               2199 
     35500   371.15802      39007.011     -186938.33      2431.7607     -184506.57      1.4689524      19683               2199 
     36000   386.04263      44632.33      -186924.29      2529.282      -184395         1.4689524      19683               2199 
     36500   395.56999      45067.449     -186887.95      2591.7036     -184296.24      1.4689524      19683               2199 
     37000   408.3088       45187.528     -186883.2       2675.1659     -184208.03      1.4689524      19683               2199 
     37500   409.93025      43859.402     -186799.55      2685.7894     -184113.76      1.4689524      19683               2199 
     38000   421.68012      45568.687     -186764.54      2762.7725     -184001.77      1.4689524      19683               2199 
     38500   435.53142      51035.582     -186753.68      2853.5237     -183900.15      1.4689524      19683               2199 
     39000   437.15166      51830.247     -186667.41      2864.1392     -183803.27      1.4689524      19683               2199 
     39500   458.92065      56733.012     -186708.75      3006.7657     -183701.98      1.4689524      19683               2199 
     40000   469.32758      52555.451     -186684.24      3074.95       -183609.29      1.4689524      19683               2199 
     40500   473.55301      53857.216     -186628.92      3102.6343     -183526.29      1.4689524      19683               2199 
     41000   484.51908      50164.58      -186626.95      3174.482      -183452.47      1.4689524      19683               2199 
     41500   507.2384       54710.335     -186707.14      3323.335      -183383.81      1.4689524      19683               2199 
     42000   500.13239      57477.695     -186618.85      3276.7776     -183342.07      1.4689524      19683               2199 
     42500   517.29361      53632.141     -186672.81      3389.2149     -183283.59      1.4689524      19683               2199 
     43000   507.792        60933.642     -186550.11      3326.962      -183223.15      1.4689524      19683               2199 
     43500   521.95405      51261.112     -186561.04      3419.7493     -183141.29      1.4689524      19683               2199 
     44000   549.81615      51557.731     -186681.65      3602.2967     -183079.35      1.4689524      19683               2199 
     44500   550.95531      56926.266     -186637.32      3609.7603     -183027.56      1.4689524      19683               2199 
     45000   548.89036      63836.963     -186597.55      3596.2311     -183001.32      1.4689524      19683               2199 
     45500   549.31294      63063.188     -186591.43      3598.9997     -182992.44      1.4689524      19683               2199 
     46000   574.11131      58274.88      -186749.95      3761.4743     -182988.48      1.4689524      19683               2199 
     46500   595.55544      67593.92      -186909.41      3901.9723     -183007.44      1.4689524      19683               2199 
     47000   620.4607       66147.262     -187169.8       4065.1471     -183104.65      1.4689524      19683               2199 
     47500   623.4846       68525.559     -187308.06      4084.9592     -183223.1       1.4689524      19683               2199 
     48000   607.39726      67397.129     -187304.38      3979.5578     -183324.82      1.4689524      19683               2199 
     48500   611.64557      71291.097     -187399.2       4007.392      -183391.81      1.4689524      19683               2199 
     49000   622.52271      68508.618     -187530.02      4078.6571     -183451.36      1.4689524      19683               2199 
     49500   625.66879      64045.361     -187588.7       4099.2696     -183489.43      1.4689524      19683               2199 
     50000   638.45101      67549.059     -187691.38      4183.0164     -183508.37      1.4689524      19683               2199 
     50500   659.54193      62969.844     -187856.94      4321.2003     -183535.74      1.4689524      19683               2199 
     51000   646.28509      65008.066     -187794.37      4234.3439     -183560.03      1.4689524      19683               2199 
     51500   680.51838      77020.914     -188029.8       4458.6343     -183571.16      1.4689524      19683               2199 
     52000   697.50634      72329.076     -188171.28      4569.9363     -183601.34      1.4689524      19683               2199 
     52500   659.21992      73384.156     -187992.01      4319.0906     -183672.92      1.4689524      19683               2199 
     53000   675.40054      66570.597     -188155.69      4425.1031     -183730.59      1.4689524      19683               2199 
     53500   716.0897       74073.957     -188437.27      4691.6912     -183745.58      1.4689524      19683               2199 
     54000   734.55335      78771.625     -188629.99      4812.6617     -183817.32      1.4689524      19683               2199 
     54500   741.69084      78342.626     -188813.1       4859.4253     -183953.67      1.4689524      19683               2199 
     55000   758.98902      77961.402     -189044.98      4972.7598     -184072.22      1.4689524      19683               2199 
     55500   750.8129       84286.473     -189109.57      4919.1914     -184190.38      1.4689524      19683               2199 
     56000   741.12549      83704.35      -189171.25      4855.7212     -184315.53      1.4689524      19683               2199 
     56500   752.11276      83873.794     -189344.79      4927.7078     -184417.08      1.4689524      19683               2199 
     57000   775.09764      78630.392     -189581.69      5078.3006     -184503.39      1.4689524      19683               2199 
     57500   775.56255      78373.411     -189670.41      5081.3466     -184589.07      1.4689524      19683               2199 
     58000   763.14907      79960.352     -189628.7       5000.0157     -184628.69      1.4689524      19683               2199 
     58500   752.42775      80956.198     -189535.17      4929.7715     -184605.39      1.4689524      19683               2199 
     59000   772.56548      78166.281     -189564.43      5061.7103     -184502.72      1.4689524      19683               2199 
     59500   790.88684      86261.312     -189533.46      5181.7486     -184351.71      1.4689524      19683               2199 
     60000   813.64554      84679.954     -189587.31      5330.8595     -184256.45      1.4689524      19683               2199 
     60500   824.62632      84554.242     -189626.46      5402.8036     -184223.65      1.4689524      19683               2199 
     61000   830.30654      91010.408     -189649.76      5440.0194     -184209.74      1.4689524      19683               2199 
     61500   837.26547      87554.457     -189681.82      5485.6131     -184196.21      1.4689524      19683               2199 
     62000   847.1791       81424.185     -189725.74      5550.5654     -184175.18      1.4689524      19683               2199 
     62500   868.31168      90342.028     -189797.21      5689.0223     -184108.18      1.4689524      19683               2199 
     63000   895.85571      89613.992     -189900.83      5869.4858     -184031.34      1.4689524      19683               2199 
     63500   914.6503       86386.903     -190010.49      5992.6246     -184017.86      1.4689524      19683               2199 
     64000   934.9766       98689.351     -190250.85      6125.7989     -184125.05      1.4689524      19683               2199 
     64500   919.59446      93251.037     -190343.02      6025.0178     -184318         1.4689524      19683               2199 
     65000   938.19286      95859.788     -190581.68      6146.8712     -184434.81      1.4689524      19683               2199 
     65500   933.61101      93051.853     -190686.75      6116.8517     -184569.89      1.4689524      19683               2199 
     66000   932.88338      98969.337     -190836.06      6112.0844     -184723.98      1.4689524      19683               2199 
     66500   920.07381      98775.79      -190874.91      6028.1584     -184846.75      1.4689524      19683               2199 
     67000   923.36651      99735.079     -190989.66      6049.7316     -184939.92      1.4689524      19683               2199 
     67500   932.65964      102255.82     -191143.57      6110.6185     -185032.95      1.4689524      19683               2199 
     68000   941.09512      102324.68     -191307.18      6165.8863     -185141.29      1.4689524      19683               2199 
     68500   935.57128      100962.9      -191351.25      6129.6951     -185221.56      1.4689524      19683               2199 
     69000   928.81348      104077.98     -191308.75      6085.4192     -185223.33      1.4689524      19683               2199 
     69500   961.7431       102238.47     -191460.88      6301.1681     -185159.71      1.4689524      19683               2199 
     70000   958.02585      106294.04     -191298.4       6276.8134     -185021.59      1.4689524      19683               2199 
     70500   974.43444      99185.602     -191264.9       6384.3196     -184880.58      1.4689524      19683               2199 
     71000   954.70019      106549.01     -191048.84      6255.0243     -184793.82      1.4689524      19683               2199 
     71500   997.41866      101607.58     -191240.94      6534.908      -184706.04      1.4689524      19683               2199 
     72000   1014.3043      102087.2      -191259.95      6645.5395     -184614.41      1.4689524      19683               2199 
     72500   989.50369      109497.99     -191026.75      6483.0505     -184543.7       1.4689524      19683               2199 
     73000   1026.1797      115189.32     -191173.39      6723.3449     -184450.05      1.4689524      19683               2199 
     73500   1028.715       108119        -191075.87      6739.9561     -184335.92      1.4689524      19683               2199 
     74000   1043.331       105196.97     -191053.48      6835.7172     -184217.76      1.4689524      19683               2199 
     74500   1068.4359      104275.5      -191160.44      7000.2        -184160.24      1.4689524      19683               2199 
     75000   1059.1005      116663.34     -191060.26      6939.0364     -184121.22      1.4689524      19683               2199 
     75500   1064.8931      105253.94     -191034.72      6976.9885     -184057.73      1.4689524      19683               2199 
     76000   1058.2702      109277.06     -190885.27      6933.5966     -183951.68      1.4689524      19683               2199 
     76500   1091.0741      115052.4      -191001.97      7148.5219     -183853.45      1.4689524      19683               2199 
     77000   1095.6549      114486.32     -190943.01      7178.5344     -183764.47      1.4689524      19683               2199 
     77500   1091.0675      108703.85     -190839.02      7148.4787     -183690.55      1.4689524      19683               2199 
     78000   1124.1455      117969.54     -190966.58      7365.1997     -183601.38      1.4689524      19683               2199 
     78500   1127.5465      115390.08     -190915.55      7387.4824     -183528.06      1.4689524      19683               2199 
     79000   1134.6081      109047.59     -190907.54      7433.7485     -183473.79      1.4689524      19683               2199 
     79500   1150.2781      110230.19     -190949.96      7536.4155     -183413.55      1.4689524      19683               2199 
     80000   1149.9275      110313.65     -190856.12      7534.1186     -183322         1.4689524      19683               2199 
     80500   1155.8259      115576.84     -190797.13      7572.7635     -183224.37      1.4689524      19683               2199 
     81000   1165.9492      115622.33     -190766.66      7639.0897     -183127.57      1.4689524      19683               2199 
     81500   1179.7252      120926.55     -190773.04      7729.3478     -183043.69      1.4689524      19683               2199 
     82000   1184.3469      111677.95     -190736.84      7759.6283     -182977.22      1.4689524      19683               2199 
     82500   1165.1748      117011.29     -190554.47      7634.0159     -182920.46      1.4689524      19683               2199 
     83000   1182.7023      121667.14     -190611.87      7748.853      -182863.02      1.4689524      19683               2199 
     83500   1203.2518      119649.2      -190703.97      7883.4901     -182820.48      1.4689524      19683               2199 
     84000   1226.8287      116662.6      -190808         8037.9614     -182770.04      1.4689524      19683               2199 
     84500   1218.3259      115314.55     -190696.34      7982.2529     -182714.09      1.4689524      19683               2199 
     85000   1238.1542      119887.77     -190771.73      8112.1641     -182659.56      1.4689524      19683               2199 
     85500   1231.1294      134452.62     -190663.48      8066.1386     -182597.34      1.4689524      19683               2199 
     86000   1248.7298      125425.15     -190709.53      8181.4536     -182528.07      1.4689524      19683               2199 
     86500   1242.8606      127330.42     -190579.29      8142.9998     -182436.29      1.4689524      19683               2199 
     87000   1258.6604      133353.2      -190571.36      8246.5169     -182324.85      1.4689524      19683               2199 
     87500   1287.3135      131995.02     -190629.1       8434.2468     -182194.85      1.4689524      19683               2199 
     88000   1311.4123      132878.21     -190676.28      8592.1382     -182084.14      1.4689524      19683               2199 
     88500   1305.2006      126246.85     -190586.67      8551.4401     -182035.23      1.4689524      19683               2199 
     89000   1312.2948      131974.92     -190611.32      8597.9197     -182013.4       1.4689524      19683               2199 
     89500   1356.562       127893.75     -190885.63      8887.9509     -181997.68      1.4689524      19683               2199 
     90000   1341.6777      129130.58     -190776.95      8790.4312     -181986.52      1.4689524      19683               2199 
     90500   1329.9064      119524.44     -190703.61      8713.3081     -181990.3       1.4689524      19683               2199 
     91000   1370.8424      124163.16     -190956.7       8981.513      -181975.18      1.4689524      19683               2199 
     91500   1373.6641      129213.26     -190966.45      9000.0007     -181966.45      1.4689524      19683               2199 
     92000   1323.1296      136025.45     -190634.78      8668.9079     -181965.87      1.4689524      19683               2199 
     92500   1349.8106      137288.92     -190723.81      8843.7167     -181880.09      1.4689524      19683               2199 
     93000   1357.6488      137032.05     -190613.73      8895.071      -181718.66      1.4689524      19683               2199 
     93500   1354.6522      140740.13     -190424.46      8875.4378     -181549.02      1.4689524      19683               2199 
     94000   1380.7276      140970.98     -190434.32      9046.2796     -181388.04      1.4689524      19683               2199 
     94500   1414.7924      136983.22     -190582.72      9269.4655     -181313.26      1.4689524      19683               2199 
     95000   1413.2753      136053.91     -190545.31      9259.5259     -181285.78      1.4689524      19683               2199 
     95500   1429.0103      142009.66     -190618.36      9362.6188     -181255.74      1.4689524      19683               2199 
     96000   1424.9014      135536.6      -190567.9       9335.6985     -181232.2       1.4689524      19683               2199 
     96500   1421.873       140906.47     -190533.07      9315.8568     -181217.22      1.4689524      19683               2199 
     97000   1437.0158      137991.39     -190558.6       9415.0694     -181143.54      1.4689524      19683               2199 
     97500   1468.0635      143878.97     -190577.61      9618.4885     -180959.12      1.4689524      19683               2199 
     98000   1500.543       148647.29     -190564.19      9831.2886     -180732.9       1.4689524      19683               2199 
     98500   1469.8669      146729.79     -190248.81      9630.304      -180618.5       1.4689524      19683               2199 
     99000   1488.92        149973.58     -190361.62      9755.1368     -180606.48      1.4689524      19683               2199 
     99500   1529.011       146962.95     -190719.33      10017.805     -180701.52      1.4689524      19683               2199 
    100000   1481.5524      146894.85     -190623.73      9706.8654     -180916.87      1.4689524      19683               2199 
    100500   1482.0076      150575.67     -190749.41      9709.8477     -181039.57      1.4689524      19683               2199 
    101000   1452.4056      146350.89     -190586.24      9515.9006     -181070.34      1.4689524      19683               2199 
    101500   1482.6362      150239.68     -190745.79      9713.9662     -181031.82      1.4689524      19683               2199 
    102000   1509.1158      148144.17     -190808.74      9887.4558     -180921.28      1.4689524      19683               2199 
    102500   1531.8542      147717.51     -190803.02      10036.434     -180766.59      1.4689524      19683               2199 
    103000   1532.835       139650.13     -190641.63      10042.86      -180598.77      1.4689524      19683               2199 
    103500   1541.7044      148184.59     -190573.77      10100.97      -180472.8       1.4689524      19683               2199 
    104000   1565.6021      149736.17     -190625.01      10257.544     -180367.46      1.4689524      19683               2199 
    104500   1596.8207      144444.97     -190761.6       10462.083     -180299.52      1.4689524      19683               2199 
    105000   1559.0123      143810.22     -190479.25      10214.369     -180264.88      1.4689524      19683               2199 
    105500   1584.9234      150559.67     -190602.18      10384.134     -180218.04      1.4689524      19683               2199 
    106000   1571.0035      158611.66     -190454.89      10292.933     -180161.95      1.4689524      19683               2199 
    106500   1584.9266      151877.8      -190378.25      10384.155     -179994.1       1.4689524      19683               2199 
    107000   1652.1074      148005.49     -190527.58      10824.311     -179703.27      1.4689524      19683               2199 
    107500   1653.6351      157444.32     -190339.37      10834.32      -179505.05      1.4689524      19683               2199 
    108000   1661.4173      157675.53     -190362.78      10885.308     -179477.48      1.4689524      19683               2199 
    108500   1633.6196      157479.99     -190216.43      10703.182     -179513.25      1.4689524      19683               2199 
    109000   1642.6681      151228.78     -190301.03      10762.467     -179538.57      1.4689524      19683               2199 
    109500   1645.2039      161823.81     -190328.04      10779.08      -179548.96      1.4689524      19683               2199 
    110000   1656.156       149098.09     -190377.22      10850.837     -179526.39      1.4689524      19683               2199 
    110500   1653.9458      159000.49     -190238.87      10836.356     -179402.52      1.4689524      19683               2199 
    111000   1676.2055      176854.19     -190093.61      10982.198     -179111.41      1.4689524      19683               2199 
    111500   1702.3715      172725.09     -190024.39      11153.633     -178870.76      1.4689524      19683               2199 
    112000   1726.1092      164532.3      -190098.44      11309.158     -178789.28      1.4689524      19683               2199 
    112500   1743.3507      169338.79     -190189.8       11422.121     -178767.68      1.4689524      19683               2199 
    113000   1731.7855      166922.25     -190166.31      11346.348     -178819.97      1.4689524      19683               2199 
    113500   1716.8366      155244.35     -190161.35      11248.405     -178912.95      1.4689524      19683               2199 
    114000   1716.2858      156065.11     -190269.07      11244.796     -179024.27      1.4689524      19683               2199 
    114500   1704.8656      157644.67     -190224.63      11169.973     -179054.66      1.4689524      19683               2199 
    115000   1758.7364      160561.86     -190514.72      11522.925     -178991.8       1.4689524      19683               2199 
    115500   1730.0183      165060.61     -190090.32      11334.77      -178755.55      1.4689524      19683               2199 
    116000   1800.0125      164103.88     -190219.13      11793.359     -178425.77      1.4689524      19683               2199 
    116500   1798.2243      166622.3      -190025.55      11781.643     -178243.91      1.4689524      19683               2199 
    117000   1785.6897      180650.13     -189814.94      11699.518     -178115.42      1.4689524      19683               2199 
    117500   1792.8761      179753.7      -189827.71      11746.602     -178081.11      1.4689524      19683               2199 
    118000   1802.2832      168130.14     -189930.31      11808.236     -178122.07      1.4689524      19683               2199 
    118500   1834.6768      156779.66     -190220.22      12020.473     -178199.75      1.4689524      19683               2199 
    119000   1799.0328      169043.67     -190112.5       11786.94      -178325.56      1.4689524      19683               2199 
    119500   1800.078       171493.98     -190245.33      11793.788     -178451.54      1.4689524      19683               2199 
    120000   1795.8231      161415.27     -190279.18      11765.911     -178513.27      1.4689524      19683               2199 
    120500   1804.1208      170313.77     -190248.86      11820.275     -178428.58      1.4689524      19683               2199 
    121000   1789.0353      179597.72     -189812.35      11721.438     -178090.91      1.4689524      19683               2199 
    121500   1835.776       164348.05     -189791.52      12027.675     -177763.84      1.4689524      19683               2199 
    122000   1869.1736      176930.17     -189861.28      12246.49      -177614.79      1.4689524      19683               2199 
    122500   1871.0469      175518.77     -189733.57      12258.764     -177474.81      1.4689524      19683               2199 
    123000   1881.083       177543.24     -189629.72      12324.518     -177305.2       1.4689524      19683               2199 
    123500   1933.994       186604.92     -189807.05      12671.182     -177135.87      1.4689524      19683               2199 
    124000   1904.6897      176268.9      -189467.59      12479.185     -176988.41      1.4689524      19683               2199 
    124500   1911.9491      181038.07     -189415.58      12526.747     -176888.83      1.4689524      19683               2199 
    125000   1905.8233      179840.19     -189305.2       12486.612     -176818.58      1.4689524      19683               2199 
    125500   1928.5541      189612.3      -189393.69      12635.541     -176758.15      1.4689524      19683               2199 
    126000   1951.8183      187431.99     -189417.5       12787.963     -176629.53      1.4689524      19683               2199 
    126500   1959.5843      188039.93     -189266.48      12838.845     -176427.64      1.4689524      19683               2199 
    127000   1949.1167      181675.53     -188977.36      12770.263     -176207.1       1.4689524      19683               2199 
    127500   1976.7985      183341.49     -189021.67      12951.629     -176070.04      1.4689524      19683               2199 
    128000   2009.6202      186321.33     -189203.32      13166.67      -176036.65      1.4689524      19683               2199 
    128500   2026.9085      182445.68     -189404.79      13279.941     -176124.85      1.4689524      19683               2199 
    129000   1960.859       178736.23     -189251.23      12847.196     -176404.03      1.4689524      19683               2199 
    129500   1935.1384      186162.44     -189340.88      12678.679     -176662.2       1.4689524      19683               2199 
    130000   1953.1829      185364.37     -189499.9       12796.904     -176703         1.4689524      19683               2199 
    130063   1946.4357      181897.84     -189447.89      12752.698     -176695.19      1.4689524      19683               2199 
Loop time of 4612.41 on 48 procs for 100000 steps with 2199 atoms

Performance: 0.187 ns/day, 128.122 hours/ns, 21.681 timesteps/s, 47.676 katom-step/s
99.4% CPU use with 12 MPI tasks x 4 OpenMP threads

MPI task timing breakdown:
Section |  min time  |  avg time  |  max time  |%varavg| %total
---------------------------------------------------------------
Pair    | 3838.6     | 3919.5     | 3957.3     |  54.5 | 84.98
Neigh   | 20.717     | 20.872     | 21.103     |   2.1 |  0.45
Comm    | 47.35      | 85.077     | 165.21     | 367.6 |  1.84
Output  | 0.02484    | 0.028965   | 0.034836   |   1.5 |  0.00
Modify  | 583.96     | 584.83     | 585.83     |   2.1 | 12.68
Other   |            | 2.068      |            |       |  0.04

Nlocal:         183.25 ave         191 max         174 min
Histogram: 2 1 1 1 1 0 1 1 1 3
Nghost:        4981.92 ave        5031 max        4937 min
Histogram: 3 0 2 0 1 1 2 1 0 2
Neighs:         133208 ave      139226 max      126932 min
Histogram: 2 2 0 2 0 0 1 1 3 1

Total # of neighbors = 1598490
Ave neighs/atom = 726.91678
Neighbor list builds = 706
Dangerous builds = 0
=== Phase 4: NVT Condensation at 2000 K ===
--- Condensation Stage 1/4 ---
Setting up Verlet run ...
  Unit style    : real
  Current step  : 130063
  Time step     : 0.1
Per MPI rank memory allocation (min/avg/max) = 357.5 | 362.2 | 367.2 Mbytes
   Step          Temp          Press          PotEng         KinEng         TotEng        Density         Volume        Atoms   
    130063   1946.4357      181897.83     -189447.89      12752.698     -176695.19      1.4689524      19683               2199 
    130500   1970.3868      190976.41     -189560.47      12909.621     -176650.85      1.4689524      19683               2199 
    131000   1967.9377      186339.38     -189365.27      12893.574     -176471.69      1.4689524      19683               2199 
    131500   2003.2484      181914.18     -189350.76      13124.924     -176225.84      1.4689524      19683               2199 
    132000   2035.8072      181905.21     -189283.13      13338.243     -175944.89      1.4689524      19683               2199 
    132500   2021.8327      192817.57     -189104.4       13246.685     -175857.72      1.4689524      19683               2199 
    133000   2011.2828      192792.7      -189082.29      13177.564     -175904.72      1.4689524      19683               2199 
    133500   2042.6716      184441.08     -189410.27      13383.218     -176027.05      1.4689524      19683               2199 
    134000   2031.2717      181704.81     -189491.64      13308.528     -176183.12      1.4689524      19683               2199 
    134500   1976.098       185446.69     -189306.13      12947.039     -176359.09      1.4689524      19683               2199 
    135000   2029.7171      188852.88     -189799.42      13298.342     -176501.08      1.4689524      19683               2199 
    135500   2005.3192      184919.06     -189745.3       13138.491     -176606.81      1.4689524      19683               2199 
    136000   1999.0119      189829.03     -189784.41      13097.167     -176687.24      1.4689524      19683               2199 
    136500   2002.1747      190046.1      -189898.68      13117.889     -176780.79      1.4689524      19683               2199 
    137000   2001.7348      177400.74     -189909.48      13115.007     -176794.48      1.4689524      19683               2199 
    137500   2050.2779      190252.21     -190262.7       13433.053     -176829.65      1.4689524      19683               2199 
    138000   1982.2897      194230.12     -189908.26      12987.606     -176920.65      1.4689524      19683               2199 
    138500   1956.3953      172759.55     -189977.07      12817.951     -177159.12      1.4689524      19683               2199 
    139000   1977.056       176530.55     -190421.37      12953.316     -177468.06      1.4689524      19683               2199 
    139500   1925.7643      182253.34     -190198.58      12617.262     -177581.32      1.4689524      19683               2199 
    140000   1873.1717      175970.78     -189805.02      12272.685     -177532.34      1.4689524      19683               2199 
    140500   1962.3247      176336.32     -190110.3       12856.799     -177253.5       1.4689524      19683               2199 
    141000   2031.2867      173121.35     -190295.68      13308.626     -176987.05      1.4689524      19683               2199 
    141500   2001.4637      179674.21     -189946.15      13113.231     -176832.92      1.4689524      19683               2199 
    142000   1996.7452      185343.21     -189827.31      13082.316     -176744.99      1.4689524      19683               2199 
    142500   2006.3264      189085.66     -189787.19      13145.091     -176642.1       1.4689524      19683               2199 
    143000   2020.3017      183825.05     -189800.58      13236.654     -176563.92      1.4689524      19683               2199 
    143500   2036.4845      189635.33     -189883.44      13342.681     -176540.76      1.4689524      19683               2199 
    144000   1990.9068      184759.9      -189655.64      13044.064     -176611.58      1.4689524      19683               2199 
    144500   2000.812       181753.64     -190001.07      13108.961     -176892.11      1.4689524      19683               2199 
    145000   1952.7477      192259.31     -189975.33      12794.052     -177181.28      1.4689524      19683               2199 
    145500   1942.1469      183496.32     -190022.96      12724.598     -177298.36      1.4689524      19683               2199 
    146000   2017.5775      179462.75     -190530.58      13218.805     -177311.77      1.4689524      19683               2199 
    146500   1959.9536      189491.48     -190107.67      12841.264     -177266.41      1.4689524      19683               2199 
    147000   1998.8444      191122.76     -190185.4       13096.07      -177089.33      1.4689524      19683               2199 
    147500   1975.8281      178170.81     -189853.19      12945.271     -176907.92      1.4689524      19683               2199 
    148000   2008.6561      191349.94     -189978.54      13160.354     -176818.19      1.4689524      19683               2199 
    148500   2023.4097      184807.21     -190054.2       13257.017     -176797.18      1.4689524      19683               2199 
    149000   1995.0747      177343.71     -189902.1       13071.371     -176830.73      1.4689524      19683               2199 
    149500   2015.9718      190484.9      -190054.6       13208.285     -176846.31      1.4689524      19683               2199 
    150000   1999.3173      175791.31     -189954.38      13099.168     -176855.21      1.4689524      19683               2199 
    150500   2022.4668      194601.78     -190135.1       13250.839     -176884.26      1.4689524      19683               2199 
    151000   2014.9704      180256.22     -190186.53      13201.725     -176984.81      1.4689524      19683               2199 
    151500   1988.4053      190772.62     -190178.07      13027.675     -177150.39      1.4689524      19683               2199 
    152000   1937.2482      180628.5      -190101.68      12692.503     -177409.18      1.4689524      19683               2199 
    152500   1942.8253      179684.04     -190356.7       12729.043     -177627.66      1.4689524      19683               2199 
    153000   1996.8615      172624.46     -190772.52      13083.078     -177689.45      1.4689524      19683               2199 
    153500   1973.0575      181441.17     -190568.92      12927.119     -177641.8       1.4689524      19683               2199 
    154000   1945.9966      189121.84     -190297.71      12749.82      -177547.88      1.4689524      19683               2199 
    154500   1995.4958      188930.45     -190473.69      13074.13      -177399.56      1.4689524      19683               2199 
    155000   2036.8281      184345.03     -190633.08      13344.932     -177288.15      1.4689524      19683               2199 
    155500   2015.9741      187019.01     -190471.81      13208.301     -177263.51      1.4689524      19683               2199 
    156000   2003.9949      181103.88     -190360.79      13129.815     -177230.98      1.4689524      19683               2199 
    156500   1979.8559      194178.9      -190168.76      12971.66      -177197.1       1.4689524      19683               2199 
    157000   2058.6465      181805.75     -190638.94      13487.882     -177151.06      1.4689524      19683               2199 
    157500   1990.5649      183960.7      -190209.9       13041.824     -177168.07      1.4689524      19683               2199 
    158000   2002.6098      187368.53     -190347.83      13120.74      -177227.09      1.4689524      19683               2199 
    158500   2029.0981      183000.73     -190650.56      13294.287     -177356.28      1.4689524      19683               2199 
    159000   1959.2822      179217.83     -190422.56      12836.865     -177585.69      1.4689524      19683               2199 
    159500   1981.1025      185582.16     -190744.83      12979.828     -177765         1.4689524      19683               2199 
    160000   1966.0988      179609.09     -190761.92      12881.526     -177880.39      1.4689524      19683               2199 
    160500   1944.1794      173124.84     -190600.51      12737.915     -177862.59      1.4689524      19683               2199 
    161000   1929.0155      182490.11     -190296.76      12638.563     -177658.2       1.4689524      19683               2199 
    161500   2044.0638      166061.31     -190680.86      13392.339     -177288.52      1.4689524      19683               2199 
    162000   1993.6234      185382.76     -190139.43      13061.862     -177077.57      1.4689524      19683               2199 
    162500   2034.5785      181310.09     -190344.78      13330.193     -177014.59      1.4689524      19683               2199 
    163000   2077.1324      178824.86     -190655.85      13608.999     -177046.85      1.4689524      19683               2199 
    163500   2023.0792      182999.82     -190398.92      13254.852     -177144.07      1.4689524      19683               2199 
    164000   2013.6132      178237.29     -190462.24      13192.832     -177269.41      1.4689524      19683               2199 
    164500   1976.6799      187669.75     -190381.39      12950.852     -177430.54      1.4689524      19683               2199 
    165000   1998.3428      185274.45     -190703.5       13092.783     -177610.72      1.4689524      19683               2199 
    165500   2040.9519      176832.33     -191109.54      13371.95      -177737.59      1.4689524      19683               2199 
    166000   1939.3763      178851.25     -190555.16      12706.445     -177848.71      1.4689524      19683               2199 
    166500   1970.8198      178744.43     -190799.1       12912.458     -177886.64      1.4689524      19683               2199 
    167000   2018.6541      173731.29     -191019.32      13225.859     -177793.46      1.4689524      19683               2199 
    167500   1993.1642      185440.2      -190623.06      13058.854     -177564.21      1.4689524      19683               2199 
    168000   2035.195       184215.99     -190647.47      13334.232     -177313.24      1.4689524      19683               2199 
    168500   2038.6759      181023.53     -190505.21      13357.038     -177148.17      1.4689524      19683               2199 
    169000   2021.4171      179389.8      -190323.29      13243.962     -177079.33      1.4689524      19683               2199 
    169500   2003.0525      188359.43     -190220.75      13123.64      -177097.11      1.4689524      19683               2199 
    170000   2012.5853      176086.8      -190453.32      13186.097     -177267.22      1.4689524      19683               2199 
    170500   2008.9745      182971.92     -190659.36      13162.44      -177496.92      1.4689524      19683               2199 
    171000   1973.836       185278.98     -190632.6       12932.219     -177700.38      1.4689524      19683               2199 
    171500   1956.392       177181.18     -190637.27      12817.929     -177819.34      1.4689524      19683               2199 
    172000   1979.3581      176513.33     -190786.52      12968.399     -177818.13      1.4689524      19683               2199 
    172500   1946.6564      190588.8      -190496.75      12754.143     -177742.6       1.4689524      19683               2199 
    173000   2009.6117      183261.11     -190780.53      13166.615     -177613.92      1.4689524      19683               2199 
    173500   1995.9672      182895.54     -190543.22      13077.219     -177466         1.4689524      19683               2199 
    174000   1956.6971      185059.65     -190147.49      12819.928     -177327.56      1.4689524      19683               2199 
    174500   2044.4308      180266.08     -190652.63      13394.743     -177257.89      1.4689524      19683               2199 
    175000   2003.9217      188466.8      -190421.71      13129.336     -177292.38      1.4689524      19683               2199 
    175500   2020.7628      181117.67     -190588.31      13239.675     -177348.63      1.4689524      19683               2199 
    176000   2039.0444      181232.85     -190776.32      13359.453     -177416.87      1.4689524      19683               2199 
    176500   1966.252       179985.49     -190448.39      12882.53      -177565.86      1.4689524      19683               2199 
    177000   1998.4346      188434.52     -190757.46      13093.385     -177664.08      1.4689524      19683               2199 
    177500   2043.8384      181995.99     -191092.82      13390.862     -177701.96      1.4689524      19683               2199 
    178000   2001.1348      173123.23     -190879.14      13111.076     -177768.06      1.4689524      19683               2199 
    178500   1918.7607      177630.45     -190456.91      12571.375     -177885.54      1.4689524      19683               2199 
    179000   1954.9068      188053.09     -190843.09      12808.199     -178034.9       1.4689524      19683               2199 
    179500   1959.2503      184570.88     -190938.39      12836.656     -178101.73      1.4689524      19683               2199 
    180000   1967.6913      184251.03     -191026.84      12891.96      -178134.88      1.4689524      19683               2199 
    180500   1948.768       191704.58     -190815.78      12767.978     -178047.8       1.4689524      19683               2199 
    181000   2015.8804      190259.24     -190959.55      13207.687     -177751.86      1.4689524      19683               2199 
    181500   1998.9474      189382.76     -190615.43      13096.744     -177518.68      1.4689524      19683               2199 
    182000   2063.6772      185028.72     -190911.63      13520.843     -177390.79      1.4689524      19683               2199 
    182500   2029.245       181273        -190667.85      13295.249     -177372.6       1.4689524      19683               2199 
    183000   2025.3087      181425.71     -190740.94      13269.459     -177471.49      1.4689524      19683               2199 
    183500   1999.9534      186725.49     -190703.61      13103.336     -177600.27      1.4689524      19683               2199 
    184000   2049.0725      184653.71     -191183.44      13425.155     -177758.29      1.4689524      19683               2199 
    184500   2012.7175      182376.53     -191230.1       13186.964     -178043.14      1.4689524      19683               2199 
    185000   2000.8634      183689.02     -191479.84      13109.298     -178370.54      1.4689524      19683               2199 
    185500   1938.0097      181038.82     -191151.15      12697.492     -178453.65      1.4689524      19683               2199 
    186000   1959.0736      171671.64     -191193.43      12835.499     -178357.93      1.4689524      19683               2199 
    186500   1944.9264      180575.07     -190928.13      12742.809     -178185.32      1.4689524      19683               2199 
    187000   1964.5028      188444.11     -190828.43      12871.069     -177957.36      1.4689524      19683               2199 
    187500   1963.3952      192211.94     -190632.76      12863.813     -177768.95      1.4689524      19683               2199 
    188000   2023.1512      184636.43     -190894.25      13255.324     -177638.93      1.4689524      19683               2199 
    188500   2011.0922      187178.93     -190755.09      13176.315     -177578.77      1.4689524      19683               2199 
    189000   1972.3378      184839.28     -190501.4       12922.403     -177579         1.4689524      19683               2199 
    189500   2023.0363      193038.33     -190863.97      13254.571     -177609.4       1.4689524      19683               2199 
    190000   2013.6369      178989.44     -190993.06      13192.988     -177800.07      1.4689524      19683               2199 
    190500   1962.2778      185267.35     -190999.48      12856.492     -178142.98      1.4689524      19683               2199 
    191000   1992.4126      187303.71     -191376.93      13053.93      -178323         1.4689524      19683               2199 
    191500   1932.5772      183373.04     -190994.88      12661.899     -178332.99      1.4689524      19683               2199 
    192000   1967.9029      195076.93     -191088.21      12893.346     -178194.86      1.4689524      19683               2199 
    192500   1991.3935      189408.93     -191037.43      13047.253     -177990.18      1.4689524      19683               2199 
    193000   1963.6976      184176.33     -190658.6       12865.794     -177792.8       1.4689524      19683               2199 
    193500   2028.3962      181632.78     -190954.62      13289.688     -177664.94      1.4689524      19683               2199 
    194000   2040.2227      188346.32     -190979.89      13367.173     -177612.71      1.4689524      19683               2199 
    194500   2016.771       187478.39     -190772.84      13213.521     -177559.32      1.4689524      19683               2199 
    195000   2003.4292      193492.56     -190662.96      13126.109     -177536.85      1.4689524      19683               2199 
    195500   2058.0362      176641.19     -191090.67      13483.884     -177606.79      1.4689524      19683               2199 
    196000   1976.1166      178356.62     -190736.1       12947.162     -177788.94      1.4689524      19683               2199 
    196500   2022.2459      186470.94     -191261.03      13249.392     -178011.63      1.4689524      19683               2199 
    197000   1987.2391      178081.85     -191257.15      13020.034     -178237.11      1.4689524      19683               2199 
    197500   1923.2089      185357.95     -190926.19      12600.52      -178325.67      1.4689524      19683               2199 
    198000   1983.5251      181775.74     -191258.41      12995.7       -178262.71      1.4689524      19683               2199 
    198500   1957.5726      183225.03     -190962.17      12825.664     -178136.51      1.4689524      19683               2199 
    199000   1991.1468      179743.3      -191062.44      13045.636     -178016.8       1.4689524      19683               2199 
    199500   1985.8311      173977.36     -190958.99      13010.809     -177948.19      1.4689524      19683               2199 
    200000   1961.2005      184989.48     -190772.99      12849.434     -177923.55      1.4689524      19683               2199 
    200500   1954.5166      180861.92     -190691.94      12805.642     -177886.3       1.4689524      19683               2199 
    201000   1985.9666      188097.86     -190858.91      13011.697     -177847.21      1.4689524      19683               2199 
    201500   2024.6441      190488.08     -191084.13      13265.104     -177819.03      1.4689524      19683               2199 
    202000   2001.8605      175458.09     -190905.17      13115.831     -177789.34      1.4689524      19683               2199 
    202500   1989.9407      176337.81     -190807.69      13037.735     -177769.96      1.4689524      19683               2199 
    203000   2005.938       184041.28     -190933.51      13142.546     -177790.97      1.4689524      19683               2199 
    203500   2029.9414      186851.13     -191236.87      13299.812     -177937.06      1.4689524      19683               2199 
    204000   1977.2839      188637.77     -191115.66      12954.809     -178160.85      1.4689524      19683               2199 
    204500   1941.1546      192238.64     -191076.49      12718.096     -178358.39      1.4689524      19683               2199 
    205000   2015.0096      188753.23     -191618.97      13201.981     -178416.99      1.4689524      19683               2199 
    205500   1929.0296      185339.72     -191002.12      12638.656     -178363.47      1.4689524      19683               2199 
    206000   1989.6503      173351.21     -191198.66      13035.831     -178162.83      1.4689524      19683               2199 
    206500   1992.9554      190717.58     -190903.2       13057.486     -177845.71      1.4689524      19683               2199 
    207000   2008.6777      194232.01     -190785.01      13160.495     -177624.51      1.4689524      19683               2199 
    207500   2024.8405      189731.75     -190848.09      13266.392     -177581.7       1.4689524      19683               2199 
    208000   2020.5911      181554.8      -190828.83      13238.55      -177590.28      1.4689524      19683               2199 
    208500   2047.2081      179735.38     -191068.18      13412.94      -177655.24      1.4689524      19683               2199 
    209000   2039.2307      186954.12     -191163.39      13360.674     -177802.71      1.4689524      19683               2199 
    209500   1949.2136      184699.63     -190778.42      12770.897     -178007.52      1.4689524      19683               2199 
    210000   1995.8567      186118.82     -191225.22      13076.495     -178148.72      1.4689524      19683               2199 
    210500   1966.4465      187546.4      -191067.65      12883.805     -178183.85      1.4689524      19683               2199 
    211000   1978.9039      176518.56     -191117.98      12965.423     -178152.55      1.4689524      19683               2199 
    211500   1986.8896      187220.38     -191088.9       13017.744     -178071.16      1.4689524      19683               2199 
    212000   1987.9497      196487.63     -190851.56      13024.69      -177826.87      1.4689524      19683               2199 
    212500   2062.6643      196234.77     -190912.68      13514.206     -177398.47      1.4689524      19683               2199 
    213000   2066.3739      186049.88     -190761.47      13538.511     -177222.96      1.4689524      19683               2199 
    213500   2053.6123      187669.6      -190710.86      13454.899     -177255.96      1.4689524      19683               2199 
    214000   2041.0385      199303.4      -190830.88      13372.518     -177458.36      1.4689524      19683               2199 
    214500   1991.8211      183288.89     -190766.16      13050.054     -177716.1       1.4689524      19683               2199 
    215000   2008.1068      190416.9      -190998.09      13156.755     -177841.34      1.4689524      19683               2199 
    215500   2043.5352      189283.7      -191316.26      13388.876     -177927.38      1.4689524      19683               2199 
    216000   1999.6836      180814.42     -191098.55      13101.568     -177996.98      1.4689524      19683               2199 
    216500   1955.973       185223.22     -190870.24      12815.184     -178055.05      1.4689524      19683               2199 
    217000   1990.9114      181662.92     -191127.33      13044.094     -178083.23      1.4689524      19683               2199 
    217500   2002.9769      183271.31     -191184.04      13123.145     -178060.9       1.4689524      19683               2199 
    218000   1991.3204      176293.81     -190997.22      13046.774     -177950.44      1.4689524      19683               2199 
    218500   2023.0242      178998.52     -191030.93      13254.492     -177776.43      1.4689524      19683               2199 
    219000   2039.7959      187543.28     -190941.61      13364.376     -177577.23      1.4689524      19683               2199 
    219500   2050.3851      184818.89     -190922.88      13433.755     -177489.13      1.4689524      19683               2199 
    220000   2085.4226      189573.18     -191228.1       13663.315     -177564.79      1.4689524      19683               2199 
    220500   2046.8325      182850.44     -191214.04      13410.479     -177803.56      1.4689524      19683               2199 
    221000   1951.6847      193785.85     -190876.5       12787.088     -178089.41      1.4689524      19683               2199 
    221500   1999.5154      188427.82     -191297.27      13100.466     -178196.8       1.4689524      19683               2199 
    222000   1941.9397      188634.03     -190905.53      12723.241     -178182.29      1.4689524      19683               2199 
    222500   1987.7576      194881.82     -191120.56      13023.431     -178097.13      1.4689524      19683               2199 
    223000   2019.8361      181837.63     -191182.03      13233.604     -177948.42      1.4689524      19683               2199 
    223500   2005.9219      182921.56     -190951.28      13142.44      -177808.84      1.4689524      19683               2199 
    224000   2050.7874      178337.88     -191134.18      13436.391     -177697.79      1.4689524      19683               2199 
    224500   2012.1085      183355.8      -190814.45      13182.974     -177631.48      1.4689524      19683               2199 
    225000   2037.1633      191698.2      -191030.79      13347.128     -177683.66      1.4689524      19683               2199 
    225500   2023.4249      187362.05     -191164.17      13257.117     -177907.06      1.4689524      19683               2199 
    226000   1981.6945      188686.24     -191151.04      12983.707     -178167.33      1.4689524      19683               2199 
    226500   2000.849       184120.4      -191461.82      13109.203     -178352.62      1.4689524      19683               2199 
    227000   1938.4094      191747.73     -191125.63      12700.111     -178425.52      1.4689524      19683               2199 
    227500   1976.0371      165957.67     -191316.6       12946.641     -178369.96      1.4689524      19683               2199 
    228000   1990.1276      189514.54     -191215.05      13038.959     -178176.09      1.4689524      19683               2199 
    228500   1988.2435      190725.45     -190933.97      13026.614     -177907.35      1.4689524      19683               2199 
    229000   1969.8373      185003.02     -190622.65      12906.02      -177716.63      1.4689524      19683               2199 
    229500   2022.3444      187262.46     -190885.36      13250.038     -177635.32      1.4689524      19683               2199 
    230000   2027.1608      182086.38     -190926.38      13281.594     -177644.79      1.4689524      19683               2199 
    230500   2011.7554      186225        -190908.82      13180.66      -177728.16      1.4689524      19683               2199 
    231000   2058.1468      186647.02     -191353.24      13484.608     -177868.63      1.4689524      19683               2199 
    231500   1978.0416      184926.68     -190957.61      12959.774     -177997.84      1.4689524      19683               2199 
    232000   1986.8303      184540.96     -191064.28      13017.355     -178046.92      1.4689524      19683               2199 
    232500   2010.74        186723.34     -191283.71      13174.007     -178109.7       1.4689524      19683               2199 
    233000   1983.9972      188827.7      -191149.89      12998.794     -178151.09      1.4689524      19683               2199 
    233500   2030.9261      199559.49     -191508.21      13306.263     -178201.95      1.4689524      19683               2199 
    234000   1984.7341      181336.56     -191257.84      13003.622     -178254.22      1.4689524      19683               2199 
    234500   2055.8176      188841.9      -191748.03      13469.348     -178278.68      1.4689524      19683               2199 
    235000   1970.5538      188771.95     -191282.26      12910.715     -178371.55      1.4689524      19683               2199 
    235500   2027.2429      174910        -191896.97      13282.131     -178614.83      1.4689524      19683               2199 
    236000   1912.061       177926.31     -191411.59      12527.48      -178884.11      1.4689524      19683               2199 
    236500   1962.3491      198514.2      -191823.73      12856.959     -178966.78      1.4689524      19683               2199 
    237000   1941.1968      184256.83     -191557.25      12718.373     -178838.88      1.4689524      19683               2199 
    237500   1979.607       191234.74     -191542.17      12970.03      -178572.14      1.4689524      19683               2199 
    238000   2010.2101      192233.7      -191516.48      13170.536     -178345.94      1.4689524      19683               2199 
    238500   1976.8513      191740.45     -191192.63      12951.975     -178240.66      1.4689524      19683               2199 
    239000   1963.7666      185419.03     -191023.57      12866.246     -178157.33      1.4689524      19683               2199 
    239500   2003.9581      193310.65     -191176.33      13129.574     -178046.76      1.4689524      19683               2199 
    240000   1987.6316      185378.19     -190959.83      13022.605     -177937.22      1.4689524      19683               2199 
    240500   1996.3799      182827.53     -190929.86      13079.922     -177849.94      1.4689524      19683               2199 
    241000   2065.0856      181791.77     -191294.54      13530.07      -177764.47      1.4689524      19683               2199 
    241500   2054.2277      178783.56     -191212.22      13458.931     -177753.29      1.4689524      19683               2199 
    242000   2000.5752      183627.81     -191080.81      13107.409     -177973.4       1.4689524      19683               2199 
    242500   1948.1701      184936.85     -191069.05      12764.061     -178304.99      1.4689524      19683               2199 
    243000   1983.5777      184966.93     -191496.05      12996.045     -178500.01      1.4689524      19683               2199 
    243500   1968.3375      177189.04     -191462.56      12896.194     -178566.37      1.4689524      19683               2199 
    244000   1933.4017      175848.99     -191222.38      12667.301     -178555.08      1.4689524      19683               2199 
    244500   2005.1075      185826.05     -191558.82      13137.105     -178421.72      1.4689524      19683               2199 
    245000   2041.1578      177422.09     -191576.61      13373.3       -178203.31      1.4689524      19683               2199 
    245500   1981.7771      184943.43     -190956.98      12984.248     -177972.74      1.4689524      19683               2199 
    246000   2038.1312      195483.93     -191174.6       13353.47      -177821.13      1.4689524      19683               2199 
    246500   2039.0403      199406.89     -191154.25      13359.426     -177794.82      1.4689524      19683               2199 
    247000   2017.6957      183516.92     -191180.92      13219.58      -177961.34      1.4689524      19683               2199 
    247500   1990.749       182608.78     -191458.2       13043.03      -178415.17      1.4689524      19683               2199 
    248000   1957.0174      183180.27     -191472.41      12822.027     -178650.38      1.4689524      19683               2199 
    248500   1992.8302      179131.3      -191707.85      13056.666     -178651.19      1.4689524      19683               2199 
    249000   1993.2734      191171.03     -191616.72      13059.569     -178557.15      1.4689524      19683               2199 
    249500   1966.8792      196600.45     -191285         12886.64      -178398.36      1.4689524      19683               2199 
    250000   2029.4119      187211.09     -191535.38      13296.342     -178239.04      1.4689524      19683               2199 
    250500   1981.4124      188098.76     -191109.71      12981.858     -178127.85      1.4689524      19683               2199 
    251000   2019.4209      194151.3      -191243.43      13230.883     -178012.55      1.4689524      19683               2199 
    251500   2030.5057      191386.57     -191200.45      13303.509     -177896.94      1.4689524      19683               2199 
    252000   2029.1748      194990.14     -191116.38      13294.789     -177821.59      1.4689524      19683               2199 
    252500   2041.3246      187335.66     -191217.42      13374.393     -177843.03      1.4689524      19683               2199 
    253000   2030.0527      188210.96     -191334.6       13300.541     -178034.06      1.4689524      19683               2199 
    253500   1984.3813      181544.45     -191362.11      13001.31      -178360.8       1.4689524      19683               2199 
    254000   1948.6719      173046.4      -191324         12767.349     -178556.65      1.4689524      19683               2199 
    254500   1977.2079      192178.67     -191564.87      12954.311     -178610.56      1.4689524      19683               2199 
    255000   1976.4606      190921.13     -191534.23      12949.415     -178584.82      1.4689524      19683               2199 
    255500   1961.7055      181291.94     -191379.9       12852.742     -178527.16      1.4689524      19683               2199 
    256000   1990.41        192344.51     -191389.68      13040.809     -178348.87      1.4689524      19683               2199 
    256500   1987.4344      191840.54     -191100.28      13021.314     -178078.97      1.4689524      19683               2199 
    257000   2049.6928      187373.54     -191252.21      13429.219     -177822.99      1.4689524      19683               2199 
    257500   2062.7194      192222.79     -191234.84      13514.567     -177720.27      1.4689524      19683               2199 
    258000   2019.604       192263.52     -191000.34      13232.083     -177768.25      1.4689524      19683               2199 
    258500   1999.3299      192431.11     -190976.3       13099.251     -177877.05      1.4689524      19683               2199 
    259000   2051.3408      196304.32     -191462.51      13440.017     -178022.49      1.4689524      19683               2199 
    259500   2027.7938      198119.2      -191380.03      13285.741     -178094.29      1.4689524      19683               2199 
    260000   1977.6406      192399        -191068.17      12957.146     -178111.02      1.4689524      19683               2199 
    260500   2015.5062      176422.01     -191322.53      13205.235     -178117.3       1.4689524      19683               2199 
    261000   2013.3779      184483.1      -191381.53      13191.291     -178190.24      1.4689524      19683               2199 
    261500   1979.0967      188055.79     -191263.31      12966.686     -178296.62      1.4689524      19683               2199 
    262000   1996.0373      192175.26     -191509.57      13077.678     -178431.89      1.4689524      19683               2199 
    262500   1943.2943      187824.45     -191280.39      12732.116     -178548.27      1.4689524      19683               2199 
    263000   1970.1619      173666.32     -191503.94      12908.147     -178595.8       1.4689524      19683               2199 
    263500   1981.4172      186923.79     -191579.64      12981.89      -178597.75      1.4689524      19683               2199 
    264000   1992.672       178339.25     -191624.24      13055.629     -178568.61      1.4689524      19683               2199 
    264500   1980.6662      187783.74     -191410.43      12976.969     -178433.46      1.4689524      19683               2199 
    265000   2021.9432      180147.86     -191455.7       13247.409     -178208.29      1.4689524      19683               2199 
    265500   2004.0081      192317.08     -191110.13      13129.902     -177980.22      1.4689524      19683               2199 
    266000   2016.1267      186894.55     -191045.26      13209.3       -177835.96      1.4689524      19683               2199 
    266500   1998.0905      188525.05     -190871.82      13091.13      -177780.69      1.4689524      19683               2199 
    267000   2026.3877      192031.09     -191152.61      13276.528     -177876.08      1.4689524      19683               2199 
    267500   1978.325       192940.18     -191063.25      12961.631     -178101.62      1.4689524      19683               2199 
    268000   1973.228       186130.54     -191348.48      12928.235     -178420.25      1.4689524      19683               2199 
    268500   2032.429       178273.53     -191937.62      13316.11      -178621.51      1.4689524      19683               2199 
    269000   1969.3032      186497.43     -191581.09      12902.521     -178678.57      1.4689524      19683               2199 
    269500   2022.3088      183042.84     -191902.93      13249.804     -178653.12      1.4689524      19683               2199 
    270000   1973.3973      184950.72     -191518.8       12929.345     -178589.45      1.4689524      19683               2199 
    270500   1993.7794      187231.11     -191510.06      13062.885     -178447.17      1.4689524      19683               2199 
    271000   2018.6007      188477.7      -191487.09      13225.509     -178261.58      1.4689524      19683               2199 
    271500   1989.7108      196021.44     -191149.79      13036.228     -178113.57      1.4689524      19683               2199 
    272000   2008.5821      173100.12     -191165.12      13159.869     -178005.25      1.4689524      19683               2199 
    272500   2050.5643      187930.38     -191361.58      13434.929     -177926.65      1.4689524      19683               2199 
    273000   2057.946       185586        -191437.38      13483.293     -177954.08      1.4689524      19683               2199 
    273500   1977.8806      192824.26     -191177.47      12958.719     -178218.76      1.4689524      19683               2199 
    274000   1957.8163      183220.4      -191349.9       12827.261     -178522.64      1.4689524      19683               2199 
    274500   1973.7405      183977.28     -191593.98      12931.593     -178662.38      1.4689524      19683               2199 
    275000   1972.0271      178568.05     -191632.26      12920.368     -178711.89      1.4689524      19683               2199 
    275500   1967.6364      174203.49     -191565.47      12891.601     -178673.87      1.4689524      19683               2199 
    276000   1967.7975      189425.43     -191425.59      12892.656     -178532.94      1.4689524      19683               2199 
    276500   2014.9946      181775.4      -191461.17      13201.883     -178259.29      1.4689524      19683               2199 
    277000   2030.8164      195766.78     -191350.86      13305.544     -178045.31      1.4689524      19683               2199 
    277500   1986.5515      193570.85     -190979.36      13015.529     -177963.83      1.4689524      19683               2199 
    278000   2037.3133      182494.54     -191325.22      13348.111     -177977.11      1.4689524      19683               2199 
    278500   2034.2676      184163.02     -191426.53      13328.156     -178098.37      1.4689524      19683               2199 
    279000   2003.9597      186874.79     -191434.56      13129.584     -178304.97      1.4689524      19683               2199 
    279500   2032.789       181049.51     -191753.04      13318.469     -178434.57      1.4689524      19683               2199 
    280000   1987.3121      181326.26     -191516.29      13020.512     -178495.78      1.4689524      19683               2199 
    280500   1970.3098      173301.63     -191425.17      12909.116     -178516.05      1.4689524      19683               2199 
    281000   1954.6464      181090.02     -191359.31      12806.492     -178552.81      1.4689524      19683               2199 
    281500   2007.3093      180674.24     -191694.14      13151.53      -178542.61      1.4689524      19683               2199 
    282000   2005.0223      185734.38     -191642.93      13136.546     -178506.39      1.4689524      19683               2199 
    282500   2034.1097      191946.59     -191797.19      13327.122     -178470.06      1.4689524      19683               2199 
    283000   2007.9904      187572.74     -191582.05      13155.993     -178426.05      1.4689524      19683               2199 
    283500   2005.8899      188866.67     -191509.42      13142.231     -178367.19      1.4689524      19683               2199 
    284000   1994.3881      181011.15     -191345.02      13066.873     -178278.15      1.4689524      19683               2199 
    284500   2048.9718      195201.85     -191578.36      13424.496     -178153.86      1.4689524      19683               2199 
    285000   2053.2455      183729.23     -191539.7       13452.496     -178087.21      1.4689524      19683               2199 
    285500   2013.5669      178689.11     -191297.72      13192.529     -178105.19      1.4689524      19683               2199 
    286000   1987.7758      183374.82     -191244.04      13023.55      -178220.49      1.4689524      19683               2199 
    286500   2015.0447      191897.6      -191613.58      13202.211     -178411.37      1.4689524      19683               2199 
    287000   2044.6051      178487.26     -191978.88      13395.886     -178582.99      1.4689524      19683               2199 
    287500   1950.9282      171197.47     -191511.08      12782.131     -178728.95      1.4689524      19683               2199 
    288000   1984.7959      182027.35     -191808.1       13004.026     -178804.07      1.4689524      19683               2199 
    288500   1961.8233      181747.36     -191654.2       12853.514     -178800.69      1.4689524      19683               2199 
    289000   1971.4989      185421.43     -191542.13      12916.907     -178625.22      1.4689524      19683               2199 
    289500   1945.1233      190008.63     -190983.43      12744.099     -178239.33      1.4689524      19683               2199 
    290000   2050.0371      189304.89     -191396.69      13431.475     -177965.21      1.4689524      19683               2199 
    290500   2025.5515      205845.62     -191189.08      13271.05      -177918.03      1.4689524      19683               2199 
    291000   1997.7622      188069.8      -191110.25      13088.979     -178021.27      1.4689524      19683               2199 
    291500   2021.7462      192832.42     -191453.52      13246.118     -178207.4       1.4689524      19683               2199 
    292000   1976.9078      188200        -191368.12      12952.345     -178415.77      1.4689524      19683               2199 
    292500   1991.4425      187140.64     -191584.98      13047.574     -178537.41      1.4689524      19683               2199 
    293000   2016.2282      185890.47     -191798.66      13209.965     -178588.7       1.4689524      19683               2199 
    293500   1976.6001      184851.2      -191556.09      12950.329     -178605.76      1.4689524      19683               2199 
    294000   1981.3566      179209.82     -191565.25      12981.493     -178583.75      1.4689524      19683               2199 
    294500   1987.5134      186805.39     -191527.88      13021.831     -178506.05      1.4689524      19683               2199 
    295000   1988.4112      184309.53     -191330.3       13027.714     -178302.58      1.4689524      19683               2199 
    295500   2026.5409      188125.54     -191166.5       13277.532     -177888.97      1.4689524      19683               2199 
    296000   2087.5362      187463.47     -191268.91      13677.162     -177591.74      1.4689524      19683               2199 
    296500   2040.5251      193963.88     -190978.35      13369.154     -177609.19      1.4689524      19683               2199 
    297000   2019.7313      187337.74     -190982.7       13232.917     -177749.78      1.4689524      19683               2199 
    297500   2080.1924      192072.58     -191572.69      13629.047     -177943.64      1.4689524      19683               2199 
    298000   2003.6624      189495.82     -191307.06      13127.636     -178179.42      1.4689524      19683               2199 
    298500   1985.874       188159.13     -191390.19      13011.09      -178379.1       1.4689524      19683               2199 
    299000   2014.4765      182931.55     -191693.69      13198.488     -178495.2       1.4689524      19683               2199 
    299500   1944.4173      189817.59     -191310.33      12739.473     -178570.86      1.4689524      19683               2199 
    300000   1958.554       183626.44     -191427.58      12832.094     -178595.49      1.4689524      19683               2199 
    300500   2037.3863      184499.26     -191910.98      13348.589     -178562.39      1.4689524      19683               2199 
    301000   1985.3862      186423.7      -191535.48      13007.894     -178527.59      1.4689524      19683               2199 
    301500   2020.1395      186446.72     -191635.74      13235.591     -178400.15      1.4689524      19683               2199 
    302000   2018.7804      192126.68     -191414.93      13226.687     -178188.24      1.4689524      19683               2199 
    302500   2002.724       191442.54     -191119.4       13121.488     -177997.91      1.4689524      19683               2199 
    303000   2073.8763      186619.57     -191504.05      13587.665     -177916.38      1.4689524      19683               2199 
    303500   2060.6883      198033.75     -191538.88      13501.26      -178037.62      1.4689524      19683               2199 
    304000   1986.5402      181104.16     -191326.59      13015.455     -178311.14      1.4689524      19683               2199 
    304500   1963.2772      181311.32     -191410.11      12863.04      -178547.07      1.4689524      19683               2199 
    305000   1981.7565      186398.43     -191654.05      12984.113     -178669.93      1.4689524      19683               2199 
    305500   2042.4824      181545.48     -192063.73      13381.978     -178681.75      1.4689524      19683               2199 
    306000   2009.5961      178510.76     -191813.21      13166.513     -178646.69      1.4689524      19683               2199 
    306500   1962.1015      179304.37     -191415.94      12855.337     -178560.6       1.4689524      19683               2199 
    307000   1984.8741      185686.21     -191459.1       13004.539     -178454.56      1.4689524      19683               2199 
    307500   1995.714       195165.87     -191331.5       13075.56      -178255.94      1.4689524      19683               2199 
    308000   1982.6754      176933.31     -190960.6       12990.133     -177970.47      1.4689524      19683               2199 
    308500   2016.7023      185768.82     -190878.46      13213.072     -177665.38      1.4689524      19683               2199 
    309000   2039.1208      192776.21     -190930.51      13359.954     -177570.56      1.4689524      19683               2199 
    309500   2015.4885      190295.3      -190841.62      13205.119     -177636.5       1.4689524      19683               2199 
    310000   2025.7499      184231.19     -191059.64      13272.35      -177787.29      1.4689524      19683               2199 
    310500   2082.6684      195057.39     -191565.52      13645.269     -177920.25      1.4689524      19683               2199 
    311000   2019.5935      192844.58     -191308.85      13232.014     -178076.83      1.4689524      19683               2199 
    311500   1986.5949      198442.9      -191254.93      13015.813     -178239.12      1.4689524      19683               2199 
    312000   1965.0739      193968.75     -191241.72      12874.811     -178366.91      1.4689524      19683               2199 
    312500   1991.9097      184861.11     -191526.96      13050.635     -178476.33      1.4689524      19683               2199 
    313000   2020.2945      181102.94     -191793         13236.607     -178556.39      1.4689524      19683               2199 
    313500   1965.3906      186839.98     -191548.89      12876.887     -178672         1.4689524      19683               2199 
    314000   1999.5879      181735.83     -191862.36      13100.941     -178761.42      1.4689524      19683               2199 
    314500   1957.7823      182271.73     -191694.88      12827.038     -178867.84      1.4689524      19683               2199 
    315000   1953.0374      186980.73     -191839.62      12795.951     -179043.67      1.4689524      19683               2199 
    315500   1943.263       186243.57     -191901.73      12731.911     -179169.82      1.4689524      19683               2199 
    316000   1889.6395      183092.52     -191521.97      12380.579     -179141.39      1.4689524      19683               2199 
    316500   1947.8445      187837.37     -191596.07      12761.928     -178834.14      1.4689524      19683               2199 
    317000   1983.9395      179989.3      -191531.59      12998.415     -178533.18      1.4689524      19683               2199 
    317500   1994.3795      176823.89     -191431.98      13066.817     -178365.17      1.4689524      19683               2199 
    318000   1975.5022      189011.33     -191229.68      12943.136     -178286.54      1.4689524      19683               2199 
    318500   1970.5487      183219.79     -191115.27      12910.681     -178204.59      1.4689524      19683               2199 
    319000   2040.2996      180433.86     -191554.54      13367.677     -178186.87      1.4689524      19683               2199 
    319500   1979.0668      187222.93     -191176.5       12966.491     -178210.01      1.4689524      19683               2199 
    320000   1993.9742      183125.45     -191390.99      13064.161     -178326.83      1.4689524      19683               2199 
    320500   1984.5177      188935.04     -191593.73      13002.203     -178591.52      1.4689524      19683               2199 
    321000   1950.6226      196347.51     -191613.59      12780.129     -178833.47      1.4689524      19683               2199 
    321500   1938.6079      188176.64     -191624.78      12701.411     -178923.37      1.4689524      19683               2199 
    322000   1934.3717      186571.54     -191563.08      12673.656     -178889.42      1.4689524      19683               2199 
    322500   1981.2638      184641.04     -191708.46      12980.885     -178727.58      1.4689524      19683               2199 
    323000   1994.7467      189854.69     -191543.59      13069.222     -178474.36      1.4689524      19683               2199 
    323500   1971.3196      187829.27     -191133.13      12915.732     -178217.4       1.4689524      19683               2199 
    324000   1979.2842      201803.59     -191070.05      12967.915     -178102.13      1.4689524      19683               2199 
    324500   2074.2469      182290.89     -191646.14      13590.093     -178056.05      1.4689524      19683               2199 
    325000   2021.1495      196353.29     -191354.06      13242.209     -178111.85      1.4689524      19683               2199 
    325500   1999.5126      179512.96     -191340.63      13100.448     -178240.19      1.4689524      19683               2199 
    326000   2014.003       185977.53     -191579.53      13195.386     -178384.14      1.4689524      19683               2199 
    326500   2012.1681      176479.62     -191757.73      13183.364     -178574.36      1.4689524      19683               2199 
    327000   1977.4299      184621.01     -191681.06      12955.766     -178725.29      1.4689524      19683               2199 
    327500   1988.2108      180104.59     -191800.92      13026.4       -178774.52      1.4689524      19683               2199 
    328000   1984.641       190150.73     -191709.01      13003.011     -178706         1.4689524      19683               2199 
    328500   1976.6079      190140.5      -191472.03      12950.38      -178521.65      1.4689524      19683               2199 
    329000   2029.6554      186919.85     -191410.84      13297.938     -178112.9       1.4689524      19683               2199 
    329500   2050.5578      193073.39     -191255.73      13434.887     -177820.85      1.4689524      19683               2199 
    330000   2088.7779      180308.74     -191448.08      13685.298     -177762.78      1.4689524      19683               2199 
    330500   2044.3334      180911.02     -191261.27      13394.105     -177867.16      1.4689524      19683               2199 
    331000   1987.2893      189999.77     -191088.48      13020.363     -178068.12      1.4689524      19683               2199 
    331500   2005.2449      193186.61     -191416.19      13138.004     -178278.19      1.4689524      19683               2199 
    332000   2064.6885      189631.82     -191938.07      13527.468     -178410.61      1.4689524      19683               2199 
    332500   1987.8479      185227.15     -191564.7       13024.023     -178540.68      1.4689524      19683               2199 
    333000   1985.0666      183701.72     -191607.02      13005.8       -178601.22      1.4689524      19683               2199 
    333500   1982.5512      181794.07     -191557.11      12989.319     -178567.79      1.4689524      19683               2199 
    334000   2010.4808      187038.89     -191686.26      13172.309     -178513.95      1.4689524      19683               2199 
    334500   2031.3112      180367.19     -191759.02      13308.787     -178450.24      1.4689524      19683               2199 
    335000   1993.9636      188239.69     -191415.15      13064.092     -178351.05      1.4689524      19683               2199 
    335500   2073.09        186795.28     -191778.97      13582.514     -178196.45      1.4689524      19683               2199 
    336000   1985.9192      187169.96     -191046.79      13011.386     -178035.4       1.4689524      19683               2199 
    336500   2045.5391      194529.23     -191270.74      13402.005     -177868.74      1.4689524      19683               2199 
    337000   2015.8895      193567.83     -191040.93      13207.746     -177833.18      1.4689524      19683               2199 
    337500   2036.7667      188985.39     -191298.62      13344.53      -177954.09      1.4689524      19683               2199 
    338000   1989.1124      179956.08     -191290.47      13032.308     -178258.17      1.4689524      19683               2199 
    338500   2022.8806      184231.85     -191764.27      13253.55      -178510.72      1.4689524      19683               2199 
    339000   1970.6091      187784.37     -191539.81      12911.077     -178628.73      1.4689524      19683               2199 
    339500   2019.218       184900.18     -191885.97      13229.554     -178656.42      1.4689524      19683               2199 
    340000   1972.9444      195100.72     -191554.38      12926.378     -178628         1.4689524      19683               2199 
    340500   2019.9055      188598.88     -191742.35      13234.058     -178508.29      1.4689524      19683               2199 
    341000   2037.5481      185641.08     -191703.96      13349.65      -178354.31      1.4689524      19683               2199 
    341500   1995.5993      192003.6      -191239.69      13074.808     -178164.88      1.4689524      19683               2199 
    342000   1993.0966      191335.99     -190988.16      13058.411     -177929.75      1.4689524      19683               2199 
    342500   2054.7659      195492.88     -191159.36      13462.457     -177696.9       1.4689524      19683               2199 
    343000   2097.4178      193606.04     -191343.97      13741.905     -177602.07      1.4689524      19683               2199 
    343500   2048.3983      188261.47     -191179.26      13420.738     -177758.52      1.4689524      19683               2199 
    344000   2038.0366      184517.11     -191588.32      13352.85      -178235.47      1.4689524      19683               2199 
    344500   1973.7286      182299.8      -191421.4       12931.515     -178489.89      1.4689524      19683               2199 
    345000   1983.7689      178047.27     -191586.29      12997.298     -178589         1.4689524      19683               2199 
    345500   1981.526       183438.6      -191677.46      12982.603     -178694.86      1.4689524      19683               2199 
    346000   1964.6592      185259.45     -191619.94      12872.095     -178747.85      1.4689524      19683               2199 
    346500   2007.1117      181865.49     -191819.26      13150.235     -178669.03      1.4689524      19683               2199 
    347000   2001.332       186292.8      -191694.44      13112.368     -178582.07      1.4689524      19683               2199 
    347500   1995.6551      182131.5      -191560.43      13075.174     -178485.26      1.4689524      19683               2199 
    348000   2003.3214      190804.64     -191464.79      13125.402     -178339.39      1.4689524      19683               2199 
    348500   1991.559       190389.68     -191211.48      13048.337     -178163.14      1.4689524      19683               2199 
    349000   2015.7255      198590.59     -191260.69      13206.671     -178054.01      1.4689524      19683               2199 
    349500   2058.0182      191659.16     -191457.07      13483.766     -177973.3       1.4689524      19683               2199 
    350000   1978.3874      188079.37     -191022.62      12962.039     -178060.58      1.4689524      19683               2199 
    350500   2013.0047      184212.97     -191521         13188.845     -178332.16      1.4689524      19683               2199 
    351000   2002.7095      185669.01     -191738.8       13121.393     -178617.41      1.4689524      19683               2199 
    351500   1993.6432      176886.74     -191848.93      13061.993     -178786.94      1.4689524      19683               2199 
    352000   1970.0884      174836.73     -191739.93      12907.665     -178832.27      1.4689524      19683               2199 
    352500   2029.6694      185130.63     -192101.43      13298.029     -178803.4       1.4689524      19683               2199 
    353000   2023.5362      183240.98     -191998.33      13257.846     -178740.49      1.4689524      19683               2199 
    353500   1949.0567      193853.52     -191406.51      12769.87      -178636.64      1.4689524      19683               2199 
    354000   2004.4598      183800.35     -191554.03      13132.861     -178421.17      1.4689524      19683               2199 
    354500   2070.2989      183431.45     -191673.82      13564.227     -178109.6       1.4689524      19683               2199 
    355000   2046.678       185917.09     -191340.12      13409.467     -177930.65      1.4689524      19683               2199 
    355500   2006.2292      188737.67     -191110.38      13144.454     -177965.93      1.4689524      19683               2199 
    356000   2026.2107      179723.55     -191441.3       13275.369     -178165.94      1.4689524      19683               2199 
    356500   1980.3783      198220.69     -191409.61      12975.083     -178434.52      1.4689524      19683               2199 
    357000   2003.9129      194395.55     -191691.69      13129.277     -178562.41      1.4689524      19683               2199 
    357500   2038.67        185550.86     -191944.79      13357         -178587.79      1.4689524      19683               2199 
    358000   1992.7162      182173.95     -191686.87      13055.919     -178630.95      1.4689524      19683               2199 
    358500   2000.5872      185151.86     -191734.24      13107.488     -178626.76      1.4689524      19683               2199 
    359000   1977.5321      183889.96     -191609.26      12956.435     -178652.82      1.4689524      19683               2199 
    359500   2007.3849      184611.47     -191914.99      13152.025     -178762.97      1.4689524      19683               2199 
    360000   1985.9327      179479.96     -191938.64      13011.474     -178927.17      1.4689524      19683               2199 
    360500   1970.2525      184805.06     -191976.7       12908.74      -179067.96      1.4689524      19683               2199 
    361000   1936.3275      180588.62     -191868.07      12686.47      -179181.6       1.4689524      19683               2199 
    361500   1964.2095      190399.28     -192074.39      12869.148     -179205.24      1.4689524      19683               2199 
    362000   1962.2069      184976.75     -191877.23      12856.027     -179021.2       1.4689524      19683               2199 
    362500   1987.6253      180382.35     -191663.46      13022.564     -178640.9       1.4689524      19683               2199 
    363000   2023.0261      186442.47     -191632.12      13254.504     -178377.62      1.4689524      19683               2199 
    363500   2026.1624      181747.56     -191566.48      13275.052     -178291.42      1.4689524      19683               2199 
    364000   2056.7063      189636.57     -191778.39      13475.17      -178303.22      1.4689524      19683               2199 
    364500   2042.1263      195607.7      -191764.96      13379.645     -178385.32      1.4689524      19683               2199 
    365000   1984.2552      196065.4      -191581.84      13000.484     -178581.35      1.4689524      19683               2199 
    365500   1995.7881      185931.31     -191868.83      13076.045     -178792.78      1.4689524      19683               2199 
    366000   1943.5118      187373.51     -191639.34      12733.54      -178905.8       1.4689524      19683               2199 
    366500   1994.5965      188869.1      -192006.34      13068.238     -178938.1       1.4689524      19683               2199 
    367000   2013.0077      181552.16     -192146.33      13188.865     -178957.46      1.4689524      19683               2199 
    367500   2004.1497      186462.17     -192072.62      13130.829     -178941.79      1.4689524      19683               2199 
    368000   2007.8507      189185.49     -192050.66      13155.077     -178895.58      1.4689524      19683               2199 
    368500   1952.8652      190445.68     -191630.86      12794.822     -178836.04      1.4689524      19683               2199 
    369000   1999.3398      183148.52     -191891.37      13099.315     -178792.06      1.4689524      19683               2199 
    369500   2036.8615      180765.28     -192117.39      13345.151     -178772.24      1.4689524      19683               2199 
    370000   1995.2285      182595.24     -191807.75      13072.379     -178735.37      1.4689524      19683               2199 
    370500   1977.1802      175274.39     -191652.65      12954.13      -178698.52      1.4689524      19683               2199 
    371000   2027.5864      188859.07     -191984.95      13284.382     -178700.56      1.4689524      19683               2199 
    371500   1990.4374      191724.58     -191766.46      13040.989     -178725.47      1.4689524      19683               2199 
    372000   1975.0385      186687.67     -191753.3       12940.098     -178813.2       1.4689524      19683               2199 
    372500   1959.035       182037.02     -191827.94      12835.246     -178992.69      1.4689524      19683               2199 
    373000   1939.2413      178327.01     -191831.74      12705.561     -179126.18      1.4689524      19683               2199 
    373500   1962.4952      173502.86     -192037.04      12857.916     -179179.12      1.4689524      19683               2199 
    374000   1944.5895      180132.47     -191860.47      12740.601     -179119.87      1.4689524      19683               2199 
    374500   1989.7411      181855.28     -191877.79      13036.426     -178841.36      1.4689524      19683               2199 
    375000   2016.5126      192501.31     -191705.72      13211.829     -178493.89      1.4689524      19683               2199 
    375500   2056.8545      190740.38     -191812.64      13476.141     -178336.5       1.4689524      19683               2199 
    376000   2006.705       189404.38     -191514.45      13147.571     -178366.88      1.4689524      19683               2199 
    376500   2026.8193      189474.27     -191756.51      13279.356     -178477.15      1.4689524      19683               2199 
    377000   2011.4491      184232.43     -191835.02      13178.653     -178656.37      1.4689524      19683               2199 
    377500   1988.2123      182298.66     -191854.99      13026.41      -178828.58      1.4689524      19683               2199 
    378000   1972.0753      189669.16     -191832.31      12920.683     -178911.63      1.4689524      19683               2199 
    378500   1982.4268      184916.26     -191890.22      12988.504     -178901.72      1.4689524      19683               2199 
    379000   2030.9518      179902.7      -192131.29      13306.432     -178824.86      1.4689524      19683               2199 
    379500   2009.025       173471.31     -191916.15      13162.771     -178753.38      1.4689524      19683               2199 
    380000   1994.2523      195186.92     -191719.25      13065.983     -178653.27      1.4689524      19683               2199 
    380500   2010.1529      180652.82     -191554.94      13170.161     -178384.78      1.4689524      19683               2199 
    381000   2032.0613      188854.61     -191427.19      13313.701     -178113.49      1.4689524      19683               2199 
    381500   2056.7472      192428.52     -191502.93      13475.439     -178027.49      1.4689524      19683               2199 
    382000   2081.5077      177203.39     -191782.49      13637.665     -178144.83      1.4689524      19683               2199 
    382500   2017.2576      184646.29     -191639.79      13216.71      -178423.08      1.4689524      19683               2199 
    383000   2000.4464      189462.48     -191770.9       13106.566     -178664.33      1.4689524      19683               2199 
    383500   2020.0861      186805.1      -192065.61      13235.241     -178830.37      1.4689524      19683               2199 
    384000   1997.9059      185487.71     -192022.76      13089.921     -178932.84      1.4689524      19683               2199 
    384500   1954.6769      179409.75     -191772.71      12806.692     -178966.02      1.4689524      19683               2199 
    385000   1967.5295      181494.04     -191845.33      12890.9       -178954.43      1.4689524      19683               2199 
    385500   1978.1269      179395.66     -191905.33      12960.332     -178944.99      1.4689524      19683               2199 
    386000   1987.8377      190647.04     -191897.3       13023.956     -178873.34      1.4689524      19683               2199 
    386500   2006.7386      185393.6      -191876.46      13147.791     -178728.67      1.4689524      19683               2199 
    387000   2019.2553      190638.6      -191727.51      13229.798     -178497.71      1.4689524      19683               2199 
    387500   2047.3963      183475.37     -191694.8       13414.173     -178280.62      1.4689524      19683               2199 
    388000   2067.3603      188042.67     -191695.32      13544.974     -178150.35      1.4689524      19683               2199 
    388500   2061.2863      191661.95     -191697.94      13505.178     -178192.76      1.4689524      19683               2199 
    389000   1975.008       193421.09     -191388.68      12939.898     -178448.78      1.4689524      19683               2199 
    389500   2004.3203      192193.33     -191869.95      13131.947     -178738         1.4689524      19683               2199 
    390000   1987.7575      179478.63     -191913.48      13023.43      -178890.05      1.4689524      19683               2199 
    390500   1967.7709      194105.18     -191833.05      12892.482     -178940.57      1.4689524      19683               2199 
    391000   1972.757       189682.18     -191886.23      12925.15      -178961.08      1.4689524      19683               2199 
    391500   1999.4864      193407.86     -192064.82      13100.276     -178964.55      1.4689524      19683               2199 
    392000   1985.6369      183860.65     -191949.51      13009.536     -178939.98      1.4689524      19683               2199 
    392500   1972.8827      181448.55     -191783.21      12925.973     -178857.24      1.4689524      19683               2199 
    393000   1966.2328      193710.23     -191544.56      12882.404     -178662.15      1.4689524      19683               2199 
    393500   2064.4762      183570.15     -191865.24      13526.078     -178339.16      1.4689524      19683               2199 
    394000   2105.4862      191569.84     -191976.13      13794.768     -178181.36      1.4689524      19683               2199 
    394500   2014.7         196291.32     -191436.62      13199.953     -178236.66      1.4689524      19683               2199 
    395000   2053.6242      200405.38     -191921.09      13454.977     -178466.12      1.4689524      19683               2199 
    395500   1958.3861      197378.46     -191558.2       12830.994     -178727.21      1.4689524      19683               2199 
    396000   1971.7615      187880.44     -191749.78      12918.627     -178831.16      1.4689524      19683               2199 
    396500   1998.5968      186843.99     -191965.56      13094.448     -178871.12      1.4689524      19683               2199 
    397000   1969.9991      183081.79     -191754.97      12907.081     -178847.89      1.4689524      19683               2199 
    397500   1996.6287      191970.63     -191806.42      13081.553     -178724.87      1.4689524      19683               2199 
    398000   2006.9549      192975.79     -191725.33      13149.208     -178576.12      1.4689524      19683               2199 
    398500   2022.1344      182540.3      -191701.15      13248.661     -178452.48      1.4689524      19683               2199 
    399000   2052.9763      183951.52     -191845.22      13450.732     -178394.49      1.4689524      19683               2199 
    399500   2025.5804      182032.23     -191630.42      13271.239     -178359.18      1.4689524      19683               2199 
    400000   2000.4413      196736.15     -191577.17      13106.532     -178470.64      1.4689524      19683               2199 
    400500   1974.7593      176368.53     -191706.78      12938.268     -178768.51      1.4689524      19683               2199 
    401000   1943.7176      191167.06     -191750.07      12734.889     -179015.18      1.4689524      19683               2199 
    401500   1984.9535      184824.25     -192084.16      13005.059     -179079.11      1.4689524      19683               2199 
    402000   1976.8838      187545.88     -192011.68      12952.188     -179059.49      1.4689524      19683               2199 
    402500   1987.0207      181544.06     -191994.39      13018.603     -178975.79      1.4689524      19683               2199 
    403000   1988.3961      188914.9      -191794.2       13027.614     -178766.59      1.4689524      19683               2199 
    403500   1989.2157      186658.65     -191484.18      13032.984     -178451.19      1.4689524      19683               2199 
    404000   2030.8843      199085.16     -191549.27      13305.99      -178243.28      1.4689524      19683               2199 
    404500   2061.6547      189599.73     -191701.63      13507.592     -178194.04      1.4689524      19683               2199 
    405000   1991.9008      194659.51     -191302.63      13050.576     -178252.05      1.4689524      19683               2199 
    405500   2040.8966      187039.48     -191711.22      13371.588     -178339.63      1.4689524      19683               2199 
    406000   2024.8809      186086.36     -191795.44      13266.656     -178528.79      1.4689524      19683               2199 
    406500   2013.9915      188639.49     -191911.12      13195.311     -178715.8       1.4689524      19683               2199 
    407000   1970.3785      191766.74     -191741.89      12909.566     -178832.33      1.4689524      19683               2199 
    407500   1988.5497      184834.41     -191887.04      13028.62      -178858.42      1.4689524      19683               2199 
    408000   1979.2464      181234.28     -191798.05      12967.667     -178830.39      1.4689524      19683               2199 
    408500   2031.8684      184962.47     -192069.18      13312.437     -178756.74      1.4689524      19683               2199 
    409000   2019.1572      198573        -191894.74      13229.155     -178665.59      1.4689524      19683               2199 
    409500   2014.8655      196183.42     -191762.68      13201.037     -178561.64      1.4689524      19683               2199 
    410000   2073.8899      192192.97     -192005.49      13587.755     -178417.73      1.4689524      19683               2199 
    410500   2058.9035      184134.8      -191687.78      13489.566     -178198.21      1.4689524      19683               2199 
    411000   2057.8458      196320.25     -191561         13482.636     -178078.36      1.4689524      19683               2199 
    411500   2050.3148      198856.72     -191515.4       13433.295     -178082.11      1.4689524      19683               2199 
    412000   2021.4976      189802.2      -191563.07      13244.489     -178318.58      1.4689524      19683               2199 
    412500   1945.908       194643.56     -191372.38      12749.24      -178623.14      1.4689524      19683               2199 
    413000   1996.1341      180713.08     -191862.59      13078.312     -178784.27      1.4689524      19683               2199 
    413500   2024.0351      183027.88     -192122.02      13261.114     -178860.91      1.4689524      19683               2199 
    414000   1992.7991      182200.28     -192009.75      13056.462     -178953.29      1.4689524      19683               2199 
    414500   2020.6414      187724.73     -192214.63      13238.879     -178975.75      1.4689524      19683               2199 
    415000   1955.3941      191901.76     -191777.93      12811.391     -178966.54      1.4689524      19683               2199 
    415500   1970.198       188656.71     -191766.66      12908.384     -178858.27      1.4689524      19683               2199 
    416000   2020.1876      186897.99     -191837.64      13235.907     -178601.73      1.4689524      19683               2199 
    416500   2033.7635      193177.03     -191623.54      13324.853     -178298.68      1.4689524      19683               2199 
    417000   2079.5066      197258.93     -191788.03      13624.554     -178163.47      1.4689524      19683               2199 
    417500   2053.6378      186479.26     -191670.05      13455.066     -178214.99      1.4689524      19683               2199 
    418000   1954.1504      192038.4      -191178.79      12803.243     -178375.55      1.4689524      19683               2199 
    418500   1924.944       184381.35     -191186.67      12611.887     -178574.78      1.4689524      19683               2199 
    419000   2007.6022      182122.27     -191881.75      13153.449     -178728.3       1.4689524      19683               2199 
    419500   1950.536       175776.77     -191658.43      12779.562     -178878.86      1.4689524      19683               2199 
    420000   1962.8539      181106.84     -191961.02      12860.266     -179100.76      1.4689524      19683               2199 
    420500   1893.9957      184899.38     -191901.5       12409.12      -179492.38      1.4689524      19683               2199 
    421000   1931.2665      182448.6      -192281.71      12653.311     -179628.4       1.4689524      19683               2199 
    421500   1945.1152      177723.75     -192224.32      12744.046     -179480.27      1.4689524      19683               2199 
    422000   1962.7905      178706.01     -192091.8       12859.851     -179231.95      1.4689524      19683               2199 
    422500   1979.5579      181666.87     -191949.04      12969.708     -178979.33      1.4689524      19683               2199 
    423000   1957.519       182035.27     -191603.67      12825.313     -178778.35      1.4689524      19683               2199 
    423500   1990.1202      192346.44     -191675.41      13038.91      -178636.5       1.4689524      19683               2199 
    424000   2015.424       193618.64     -191773.62      13204.696     -178568.92      1.4689524      19683               2199 
    424500   2041.7294      187402.13     -191927.71      13377.045     -178550.66      1.4689524      19683               2199 
    425000   2019.5807      194572.1      -191825.97      13231.93      -178594.04      1.4689524      19683               2199 
    425500   2011.1461      174133.98     -191883.05      13176.668     -178706.38      1.4689524      19683               2199 
    426000   1996.6563      175945.88     -191939.47      13081.733     -178857.73      1.4689524      19683               2199 
    426500   1951.4864      190043.2      -191819.47      12785.788     -179033.68      1.4689524      19683               2199 
    427000   1956.0911      185349.99     -191958.86      12815.958     -179142.91      1.4689524      19683               2199 
    427500   1988.3962      180789.68     -192116.35      13027.615     -179088.74      1.4689524      19683               2199 
    428000   1997.0213      186178.64     -191939.34      13084.125     -178855.22      1.4689524      19683               2199 
    428500   2017.4124      192983.55     -191716.89      13217.724     -178499.16      1.4689524      19683               2199 
    429000   2051.9345      197491.25     -191737.96      13443.907     -178294.06      1.4689524      19683               2199 
    429500   2055.1372      189620.44     -191760.11      13464.89      -178295.22      1.4689524      19683               2199 
    430000   1976.4418      186220.03     -191393.77      12949.292     -178444.48      1.4689524      19683               2199 
    430500   2061.06        188758.6      -192125.6       13503.695     -178621.9       1.4689524      19683               2199 
    431000   1918.2822      186908.04     -191330.17      12568.24      -178761.93      1.4689524      19683               2199 
    431500   2029.809       187824.39     -192161.56      13298.944     -178862.61      1.4689524      19683               2199 
    432000   1981.2426      188093.92     -191926.77      12980.746     -178946.02      1.4689524      19683               2199 
    432500   2010.3397      182591.77     -192137.08      13171.385     -178965.69      1.4689524      19683               2199 
    433000   1977.2334      177861.97     -191914.24      12954.478     -178959.77      1.4689524      19683               2199 
    433500   1951.088       189811.25     -191704.24      12783.178     -178921.06      1.4689524      19683               2199 
    434000   2016.5503      193509.46     -192048.05      13212.075     -178835.98      1.4689524      19683               2199 
    434500   2030.7001      194403.81     -191971.39      13304.782     -178666.61      1.4689524      19683               2199 
    435000   2069.127       194531.57     -191945.84      13556.549     -178389.29      1.4689524      19683               2199 
    435500   2070.6057      188665.16     -191779.46      13566.237     -178213.23      1.4689524      19683               2199 
    436000   2043.4544      204540.42     -191628.62      13388.346     -178240.27      1.4689524      19683               2199 
    436500   2054.8062      192452.11     -191932.55      13462.722     -178469.82      1.4689524      19683               2199 
    437000   1972.716       198147.83     -191662.04      12924.881     -178737.16      1.4689524      19683               2199 
    437500   2006.3684      182674.18     -192053.98      13145.365     -178908.62      1.4689524      19683               2199 
    438000   2004.2601      194181.26     -192095.24      13131.552     -178963.69      1.4689524      19683               2199 
    438500   1998.933       186521.64     -192045.76      13096.65      -178949.11      1.4689524      19683               2199 
    439000   2006.844       185016.99     -192056.46      13148.482     -178907.98      1.4689524      19683               2199 
    439500   2040.888       184446.65     -192165.95      13371.532     -178794.42      1.4689524      19683               2199 
    440000   2004.9289      193017.03     -191786.27      13135.934     -178650.34      1.4689524      19683               2199 
    440500   2058.3852      189899.44     -191888.45      13486.17      -178402.28      1.4689524      19683               2199 
    441000   2026.0899      187332.62     -191385.63      13274.577     -178111.06      1.4689524      19683               2199 
    441500   2055.0678      200171.88     -191456.59      13464.435     -177992.15      1.4689524      19683               2199 
    442000   2078.0612      188109        -191679.45      13615.084     -178064.37      1.4689524      19683               2199 
    442500   2017.3726      186601.15     -191601.85      13217.463     -178384.38      1.4689524      19683               2199 
    443000   2011.4021      190314.36     -191877.12      13178.345     -178698.77      1.4689524      19683               2199 
    443500   2017.5865      199976.66     -192034.61      13218.864     -178815.75      1.4689524      19683               2199 
    444000   1957.5804      183844.4      -191685.22      12825.715     -178859.51      1.4689524      19683               2199 
    444500   2033.0048      182412.87     -192197.58      13319.882     -178877.69      1.4689524      19683               2199 
    445000   2003.8384      187795.76     -192070.04      13128.789     -178941.25      1.4689524      19683               2199 
    445500   1957.0494      193260.94     -191785.42      12822.236     -178963.18      1.4689524      19683               2199 
    446000   1995.3874      184898.16     -192010.6       13073.42      -178937.18      1.4689524      19683               2199 
    446500   2038.9211      175879.99     -192193.23      13358.645     -178834.59      1.4689524      19683               2199 
    447000   2003.8701      187692.52     -191834.09      13128.997     -178705.1       1.4689524      19683               2199 
    447500   2043.938       188400.15     -191881.62      13391.515     -178490.1       1.4689524      19683               2199 
    448000   2075.1928      195707.34     -191893.46      13596.291     -178297.17      1.4689524      19683               2199 
    448500   2080.4055      193556        -191834.02      13630.444     -178203.58      1.4689524      19683               2199 
    449000   2030.9483      193961.62     -191648.59      13306.409     -178342.18      1.4689524      19683               2199 
    449500   2094.1142      178330.67     -192426.47      13720.26      -178706.21      1.4689524      19683               2199 
    450000   2028.6609      180832.79     -192299         13291.422     -179007.58      1.4689524      19683               2199 
    450500   1979.1111      182202.85     -192076.82      12966.781     -179110.03      1.4689524      19683               2199 
    451000   1973.9135      189938        -192094.57      12932.727     -179161.85      1.4689524      19683               2199 
    451500   1994.8545      180963.46     -192238.22      13069.929     -179168.29      1.4689524      19683               2199 
    452000   1938.051       187083.81     -191814.58      12697.762     -179116.82      1.4689524      19683               2199 
    452500   2003.5043      180279.57     -192102.83      13126.6       -178976.23      1.4689524      19683               2199 
    453000   2009.6331      188302.75     -191944.94      13166.756     -178778.19      1.4689524      19683               2199 
    453500   2030.9242      193496.56     -191865         13306.251     -178558.74      1.4689524      19683               2199 
    454000   2041.887       187623.25     -191819.41      13378.077     -178441.33      1.4689524      19683               2199 
    454500   2030.8594      194601.07     -191736.95      13305.826     -178431.12      1.4689524      19683               2199 
    455000   1976.1542      191014.06     -191582.79      12947.408     -178635.38      1.4689524      19683               2199 
    455500   2004.2223      189608.96     -192172.85      13131.305     -179041.54      1.4689524      19683               2199 
    456000   1996.8832      187390.74     -192366.28      13083.22      -179283.06      1.4689524      19683               2199 
    456500   2010.2688      180830.51     -192493.3       13170.921     -179322.38      1.4689524      19683               2199 
    457000   1972.3728      187333.33     -192197.98      12922.633     -179275.34      1.4689524      19683               2199 
    457500   1985.64        183270.22     -192202.47      13009.557     -179192.92      1.4689524      19683               2199 
    458000   1968.2872      195164.34     -191907.05      12895.864     -179011.19      1.4689524      19683               2199 
    458500   1994.8419      181177.91     -191839.49      13069.846     -178769.64      1.4689524      19683               2199 
    459000   2027.7952      186815.23     -191877.82      13285.75      -178592.07      1.4689524      19683               2199 
    459500   2024.8769      185291.65     -191769.76      13266.63      -178503.13      1.4689524      19683               2199 
    460000   2025.5719      188274.92     -191798.39      13271.184     -178527.2       1.4689524      19683               2199 
    460500   2027.3058      194953.39     -192007.88      13282.544     -178725.33      1.4689524      19683               2199 
    461000   1998.1059      174756.83     -192234.79      13091.231     -179143.56      1.4689524      19683               2199 
    461500   1997.7013      170738.53     -192462.57      13088.58      -179373.99      1.4689524      19683               2199 
    462000   1954.4109      193720.79     -192167.16      12804.95      -179362.21      1.4689524      19683               2199 
    462500   1970.3621      179888.35     -192171.84      12909.459     -179262.38      1.4689524      19683               2199 
    463000   2022.7902      190247.83     -192327.31      13252.958     -179074.36      1.4689524      19683               2199 
    463500   1971.317       187535.03     -191806.98      12915.715     -178891.26      1.4689524      19683               2199 
    464000   2032.0278      186374.21     -192018.7       13313.481     -178705.22      1.4689524      19683               2199 
    464500   2043.8703      189298.3      -191969.34      13391.071     -178578.27      1.4689524      19683               2199 
    465000   2022.5677      193672.47     -191776.14      13251.5       -178524.64      1.4689524      19683               2199 
    465500   2031.2707      195786.42     -191912.98      13308.521     -178604.46      1.4689524      19683               2199 
    466000   2034.3792      187265.36     -192212.23      13328.887     -178883.34      1.4689524      19683               2199 
    466500   2008.8921      185666.16     -192378.7       13161.9       -179216.8       1.4689524      19683               2199 
    467000   1982.107       181591.1      -192367.61      12986.409     -179381.2       1.4689524      19683               2199 
    467500   1991.6556      190678.09     -192462.33      13048.97      -179413.36      1.4689524      19683               2199 
    468000   2009.6731      184543.23     -192543.2       13167.017     -179376.18      1.4689524      19683               2199 
    468500   2004.0577      189496.59     -192406.79      13130.227     -179276.56      1.4689524      19683               2199 
    469000   1962.9656      173912.66     -192005.6       12860.998     -179144.6       1.4689524      19683               2199 
    469500   2024.1581      187437.8      -192199.8       13261.921     -178937.88      1.4689524      19683               2199 
    470000   1998.6514      182719.31     -191868.61      13094.805     -178773.8       1.4689524      19683               2199 
    470500   2053.3127      185799.32     -192083.41      13452.936     -178630.47      1.4689524      19683               2199 
    471000   2020.1814      188053.07     -191793.9       13235.866     -178558.04      1.4689524      19683               2199 
    471500   2019.0216      190087.85     -191800.25      13228.267     -178571.98      1.4689524      19683               2199 
    472000   1989.2948      182984.87     -191787.81      13033.502     -178754.31      1.4689524      19683               2199 
    472500   1982.7782      188486.4      -192006.18      12990.807     -179015.37      1.4689524      19683               2199 
    473000   1962.54        188389.06     -192058.87      12858.21      -179200.66      1.4689524      19683               2199 
    473500   2000.863       195972        -192364.87      13109.295     -179255.57      1.4689524      19683               2199 
    474000   1944.8048      188731.59     -191974.64      12742.012     -179232.63      1.4689524      19683               2199 
    474500   1973.0606      185235.97     -192041.6       12927.139     -179114.46      1.4689524      19683               2199 
    475000   2013.6994      189652.38     -192084.41      13193.397     -178891.01      1.4689524      19683               2199 
    475500   2010.7027      187118.43     -191864.73      13173.763     -178690.96      1.4689524      19683               2199 
    476000   2025.5515      199947.47     -191801.15      13271.05      -178530.1       1.4689524      19683               2199 
    476500   2061.9532      187155.11     -191954.69      13509.547     -178445.14      1.4689524      19683               2199 
    477000   2005.2519      200224.3      -191663.11      13138.05      -178525.06      1.4689524      19683               2199 
    477500   2010.4706      194987.14     -192068.78      13172.243     -178896.54      1.4689524      19683               2199 
    478000   1965.2839      192261.67     -192076.56      12876.187     -179200.37      1.4689524      19683               2199 
    478500   1999.0188      187099.95     -192355.63      13097.212     -179258.42      1.4689524      19683               2199 
    479000   1979.4072      174585.37     -192226.87      12968.721     -179258.15      1.4689524      19683               2199 
    479500   1965.3031      179620.73     -192066.18      12876.313     -179189.87      1.4689524      19683               2199 
    480000   2009.0621      177089.38     -192208.29      13163.014     -179045.28      1.4689524      19683               2199 
    480500   1991.8623      190575.12     -191958.39      13050.324     -178908.06      1.4689524      19683               2199 
    481000   2023.0722      187443.05     -192012.18      13254.806     -178757.38      1.4689524      19683               2199 
    481500   2050.055       193750.99     -192062.44      13431.592     -178630.85      1.4689524      19683               2199 
    482000   2052.4283      200312.39     -191985.86      13447.142     -178538.72      1.4689524      19683               2199 
    482500   2040.9031      194598.68     -191921.98      13371.631     -178550.34      1.4689524      19683               2199 
    483000   2004.8007      189586.83     -191872.44      13135.094     -178737.35      1.4689524      19683               2199 
    483500   1999.6076      182947.76     -192074.63      13101.07      -178973.56      1.4689524      19683               2199 
    484000   1986.8897      181484.89     -192154.09      13017.744     -179136.34      1.4689524      19683               2199 
    484500   1961.1057      185464.17     -192053.82      12848.813     -179205         1.4689524      19683               2199 
    485000   1948.907       186962.45     -191961.65      12768.889     -179192.76      1.4689524      19683               2199 
    485500   2013.8162      192000.14     -192210.18      13194.162     -179016.02      1.4689524      19683               2199 
    486000   1987.3551      186369.19     -191803.25      13020.794     -178782.46      1.4689524      19683               2199 
    486500   2065.993       187778.68     -192063.64      13536.015     -178527.63      1.4689524      19683               2199 
    487000   2058.8211      188802.52     -191862.4       13489.026     -178373.38      1.4689524      19683               2199 
    487500   1984.0414      195787.41     -191327.69      12999.083     -178328.61      1.4689524      19683               2199 
    488000   2068.3509      192997.16     -191994.52      13551.463     -178443.05      1.4689524      19683               2199 
    488500   2014.1068      182828.99     -192077.34      13196.066     -178881.27      1.4689524      19683               2199 
    489000   1961.6146      192547.02     -192020.2       12852.147     -179168.05      1.4689524      19683               2199 
    489500   1963.1914      192699.43     -192136.48      12862.478     -179274         1.4689524      19683               2199 
    490000   1991.8982      184532.93     -192303.68      13050.56      -179253.12      1.4689524      19683               2199 
    490500   1980.318       194114.17     -192159.39      12974.688     -179184.7       1.4689524      19683               2199 
    491000   1977.9335      191295.89     -191959.68      12959.065     -179000.62      1.4689524      19683               2199 
    491500   2020.9971      196501.38     -191977.23      13241.21      -178736.02      1.4689524      19683               2199 
    492000   2044.4518      188465.31     -191887.68      13394.881     -178492.8       1.4689524      19683               2199 
    492500   2033.7627      189630.23     -191740.81      13324.848     -178415.96      1.4689524      19683               2199 
    493000   2002.5588      193682.61     -191534.35      13120.405     -178413.95      1.4689524      19683               2199 
    493500   2014.4597      193713.86     -191658.79      13198.378     -178460.41      1.4689524      19683               2199 
    494000   2033.6363      186228.97     -191935.05      13324.02      -178611.03      1.4689524      19683               2199 
    494500   2005.4823      186711.24     -192058.5       13139.56      -178918.94      1.4689524      19683               2199 
    495000   1976.8448      182514.03     -192118.18      12951.932     -179166.25      1.4689524      19683               2199 
    495500   2019.1634      186898.56     -192467.17      13229.196     -179237.97      1.4689524      19683               2199 
    496000   1942.0412      183015.79     -191950.16      12723.906     -179226.26      1.4689524      19683               2199 
    496500   1964.3851      193681.01     -192053.9       12870.299     -179183.6       1.4689524      19683               2199 
    497000   2023.8471      180401.52     -192421.15      13259.883     -179161.26      1.4689524      19683               2199 
    497500   2034.2878      180167.84     -192468.04      13328.289     -179139.75      1.4689524      19683               2199 
    498000   2001.0679      193284.75     -192180.09      13110.638     -179069.46      1.4689524      19683               2199 
    498500   2027.701       185893.11     -192263.48      13285.133     -178978.35      1.4689524      19683               2199 
    499000   2037.349       184349.05     -192278.97      13348.345     -178930.62      1.4689524      19683               2199 
    499500   2043.2004      184975.6      -192352.24      13386.682     -178965.56      1.4689524      19683               2199 
    500000   1997.8017      183444.02     -192212.84      13089.238     -179123.6       1.4689524      19683               2199 
    500500   1952.0677      185632.68     -192128.05      12789.597     -179338.45      1.4689524      19683               2199 
    501000   1930.5882      197052.88     -192142.69      12648.867     -179493.83      1.4689524      19683               2199 
    501500   1970.8977      189528.77     -192439.15      12912.968     -179526.18      1.4689524      19683               2199 
    502000   1980.1469      183342.21     -192433.41      12973.567     -179459.84      1.4689524      19683               2199 
    502500   2011.1861      201454.21     -192471.89      13176.93      -179294.96      1.4689524      19683               2199 
    503000   2028.4985      188116.17     -192294.28      13290.358     -179003.93      1.4689524      19683               2199 
    503500   2060.0785      183450.34     -192270.91      13497.265     -178773.65      1.4689524      19683               2199 
    504000   2081.1893      190824.78     -192302.52      13635.578     -178666.94      1.4689524      19683               2199 
    504500   2005.8134      186993.52     -191868.92      13141.729     -178727.19      1.4689524      19683               2199 
    505000   2001.1632      177827.04     -192061.42      13111.262     -178950.16      1.4689524      19683               2199 
    505500   1968.4438      190335.03     -192254.73      12896.89      -179357.84      1.4689524      19683               2199 
    506000   1950.2845      190328.15     -192315         12777.914     -179537.09      1.4689524      19683               2199 
    506500   2006.9631      187502.1      -192681.15      13149.262     -179531.88      1.4689524      19683               2199 
    507000   1999.4849      186842.39     -192589.4       13100.266     -179489.13      1.4689524      19683               2199 
    507500   1926.7134      194293.32     -192024.04      12623.48      -179400.56      1.4689524      19683               2199 
    508000   2017.7518      183167.62     -192474.25      13219.948     -179254.3       1.4689524      19683               2199 
    508500   1997.5859      191443.98     -192194         13087.824     -179106.17      1.4689524      19683               2199 
    509000   1994.2472      201731.81     -192012.86      13065.949     -178946.91      1.4689524      19683               2199 
    509500   1969.1389      198194.37     -191729.55      12901.445     -178828.11      1.4689524      19683               2199 
    510000   2065.9634      195983.11     -192295.17      13535.821     -178759.35      1.4689524      19683               2199 
    510500   2006.8818      177005.07     -192041.54      13148.729     -178892.81      1.4689524      19683               2199 
    511000   2026.6499      187735.36     -192504.37      13278.246     -179226.12      1.4689524      19683               2199 
    511500   1979.2727      188867.2      -192474.46      12967.839     -179506.62      1.4689524      19683               2199 
    512000   1985.0788      186964.49     -192606.61      13005.88      -179600.73      1.4689524      19683               2199 
    512500   2007.4206      186654.14     -192707.17      13152.259     -179554.91      1.4689524      19683               2199 
    513000   1980.5771      184950.04     -192475.4       12976.386     -179499.01      1.4689524      19683               2199 
    513500   2001.8854      187470.17     -192418.4       13115.994     -179302.4       1.4689524      19683               2199 
    514000   2041.1947      187519.89     -192417.6       13373.541     -179044.06      1.4689524      19683               2199 
    514500   1993.1275      188406.31     -191939.73      13058.614     -178881.12      1.4689524      19683               2199 
    515000   2058.738       184232.82     -192262.29      13488.482     -178773.81      1.4689524      19683               2199 
    515500   2006.0206      192694.34     -191877.37      13143.087     -178734.28      1.4689524      19683               2199 
    516000   2000.6059      190310.94     -191871.37      13107.611     -178763.76      1.4689524      19683               2199 
    516500   2050.7836      184627.67     -192351.56      13436.366     -178915.19      1.4689524      19683               2199 
    517000   1960.5627      178591.63     -192230.42      12845.255     -179385.17      1.4689524      19683               2199 
    517500   1976.2631      185573.63     -192620.26      12948.121     -179672.14      1.4689524      19683               2199 
    518000   1984.7751      189248.77     -192679.99      13003.89      -179676.1       1.4689524      19683               2199 
    518500   1959.1248      187096.16     -192428.12      12835.834     -179592.29      1.4689524      19683               2199 
    519000   1989.1233      185469.85     -192480.12      13032.379     -179447.74      1.4689524      19683               2199 
    519500   1976.6092      188863.76     -192241.53      12950.388     -179291.14      1.4689524      19683               2199 
    520000   2010.8639      190162.25     -192264         13174.819     -179089.18      1.4689524      19683               2199 
    520500   2030.3248      182567.93     -192198.61      13302.324     -178896.29      1.4689524      19683               2199 
    521000   2031.0011      194997.22     -192100.67      13306.755     -178793.91      1.4689524      19683               2199 
    521500   2074.1785      187050.71     -192378.09      13589.645     -178788.44      1.4689524      19683               2199 
    522000   2017.0548      181686.81     -192195.36      13215.381     -178979.98      1.4689524      19683               2199 
    522500   1995.8116      181453.83     -192328.89      13076.199     -179252.69      1.4689524      19683               2199 
    523000   1986.1899      186670.87     -192448.23      13013.16      -179435.08      1.4689524      19683               2199 
    523500   1969.1586      176110.51     -192354.09      12901.574     -179452.51      1.4689524      19683               2199 
    524000   1991.4557      182685.94     -192480.03      13047.66      -179432.37      1.4689524      19683               2199 
    524500   2018.0044      186260.87     -192578.43      13221.603     -179356.82      1.4689524      19683               2199 
    525000   2012.6948      180025.62     -192477.96      13186.815     -179291.15      1.4689524      19683               2199 
    525500   1993.2616      189339.99     -192264.77      13059.492     -179205.28      1.4689524      19683               2199 
    526000   2035.0254      185296.61     -192487.73      13333.121     -179154.61      1.4689524      19683               2199 
    526500   2024.6569      196397.24     -192349.86      13265.189     -179084.67      1.4689524      19683               2199 
    527000   1974.7071      190827.05     -191936.31      12937.926     -178998.39      1.4689524      19683               2199 
    527500   2058.8749      175807.09     -192392.95      13489.379     -178903.57      1.4689524      19683               2199 
    528000   2036.8067      191532.89     -192247.98      13344.792     -178903.19      1.4689524      19683               2199 
    528500   2014.1591      194930.21     -192282.41      13196.409     -179086         1.4689524      19683               2199 
    529000   2007.2162      184885.41     -192536.97      13150.92      -179386.05      1.4689524      19683               2199 
    529500   1955.9134      179148.08     -192388.29      12814.793     -179573.5       1.4689524      19683               2199 
    530000   1942.8594      184732.5      -192370.7       12729.266     -179641.43      1.4689524      19683               2199 
    530063   1968.3336      184588.18     -192541.96      12896.168     -179645.8       1.4689524      19683               2199 
Loop time of 19065.2 on 48 procs for 400000 steps with 2199 atoms

Performance: 0.181 ns/day, 132.397 hours/ns, 20.981 timesteps/s, 46.137 katom-step/s
99.5% CPU use with 12 MPI tasks x 4 OpenMP threads

MPI task timing breakdown:
Section |  min time  |  avg time  |  max time  |%varavg| %total
---------------------------------------------------------------
Pair    | 15962      | 16165      | 16283      |  67.5 | 84.79
Neigh   | 135.89     | 137.01     | 139.18     |   7.2 |  0.72
Comm    | 256.54     | 373.29     | 575.66     | 442.6 |  1.96
Output  | 0.1051     | 0.12299    | 0.14764    |   3.1 |  0.00
Modify  | 2378.6     | 2380.7     | 2382       |   2.3 | 12.49
Other   |            | 8.859      |            |       |  0.05

Nlocal:         183.25 ave         196 max         174 min
Histogram: 3 2 1 0 1 0 3 0 1 1
Nghost:           5004 ave        5044 max        4956 min
Histogram: 1 1 1 1 1 1 1 3 1 1
Neighs:         133298 ave      142206 max      127451 min
Histogram: 4 1 1 0 1 1 2 0 1 1

Total # of neighbors = 1599580
Ave neighs/atom = 727.41246
Neighbor list builds = 4596
Dangerous builds = 0
System init for write_restart ...
--- Condensation Stage 2/4 ---
Setting up Verlet run ...
  Unit style    : real
  Current step  : 530063
  Time step     : 0.1
Per MPI rank memory allocation (min/avg/max) = 357.4 | 362.2 | 367.4 Mbytes
   Step          Temp          Press          PotEng         KinEng         TotEng        Density         Volume        Atoms   
    530063   1968.3336      184588.38     -192541.96      12896.168     -179645.8       1.4689524      19683               2199 
    530500   1960.4744      190513.62     -192475.49      12844.677     -179630.81      1.4689524      19683               2199 
    531000   1988.1623      191506.88     -192575.64      13026.083     -179549.56      1.4689524      19683               2199 
    531500   1999.9199      191513.62     -192509.46      13103.116     -179406.34      1.4689524      19683               2199 
    532000   2008.364       185924.24     -192333.8       13158.44      -179175.36      1.4689524      19683               2199 
    532500   2065.8432      189624.12     -192404.48      13535.034     -178869.44      1.4689524      19683               2199 
    533000   2033.9051      194388.87     -192011.24      13325.781     -178685.45      1.4689524      19683               2199 
    533500   2042.4378      186134.78     -192079.15      13381.686     -178697.47      1.4689524      19683               2199 
    534000   2027.6368      189581.85     -192188.42      13284.712     -178903.71      1.4689524      19683               2199 
    534500   1999.597       188382.28     -192346.69      13101.001     -179245.69      1.4689524      19683               2199 
    535000   2034.2132      184626.65     -192795.32      13327.799     -179467.52      1.4689524      19683               2199 
    535500   1984.0641      181324.06     -192495.39      12999.232     -179496.16      1.4689524      19683               2199 
    536000   2011.3484      186623.82     -192614.72      13177.993     -179436.72      1.4689524      19683               2199 
    536500   2008.0742      182695.12     -192538         13156.542     -179381.46      1.4689524      19683               2199 
    537000   2007.3044      191283.01     -192496.48      13151.498     -179344.98      1.4689524      19683               2199 
    537500   1991.6015      184472.68     -192386.88      13048.615     -179338.27      1.4689524      19683               2199 
    538000   1949.7464      193192.19     -192070.38      12774.388     -179295.99      1.4689524      19683               2199 
    538500   1997.0797      175663.47     -192344.57      13084.507     -179260.06      1.4689524      19683               2199 
    539000   1990.723       174184.28     -192315.55      13042.86      -179272.69      1.4689524      19683               2199 
    539500   2030.3038      168674.11     -192656.24      13302.186     -179354.06      1.4689524      19683               2199 
    540000   2014.4858      179266.36     -192715.29      13198.549     -179516.74      1.4689524      19683               2199 
    540500   1970.1534      183641.71     -192621.15      12908.091     -179713.06      1.4689524      19683               2199 
    541000   1941.0446      192618.88     -192531.73      12717.376     -179814.35      1.4689524      19683               2199 
    541500   2006.4305      180641.42     -192960.01      13145.772     -179814.24      1.4689524      19683               2199 
    542000   1960.5721      186653.63     -192581.46      12845.316     -179736.15      1.4689524      19683               2199 
    542500   2052.2838      182528.54     -192926.33      13446.195     -179480.14      1.4689524      19683               2199 
    543000   2013.4976      188710.57     -192333.53      13192.075     -179141.46      1.4689524      19683               2199 
    543500   2035.6685      184394.77     -192259.84      13337.334     -178922.5       1.4689524      19683               2199 
    544000   2025.542       189629.61     -192177.21      13270.987     -178906.23      1.4689524      19683               2199 
    544500   2045.9009      189510.77     -192391.75      13404.375     -178987.37      1.4689524      19683               2199 
    545000   1993.6825      191708.26     -192160.63      13062.25      -179098.38      1.4689524      19683               2199 
    545500   1988.4577      177686.23     -192265.92      13028.018     -179237.9       1.4689524      19683               2199 
    546000   1978.8053      166460.67     -192315.99      12964.777     -179351.21      1.4689524      19683               2199 
    546500   1964.4838      198665.39     -192243.1       12870.945     -179372.16      1.4689524      19683               2199 
    547000   2026.5051      179273.45     -192639.08      13277.298     -179361.78      1.4689524      19683               2199 
    547500   1966.71        181326.39     -192232.13      12885.531     -179346.6       1.4689524      19683               2199 
    548000   2023.0122      193921.16     -192612.16      13254.413     -179357.75      1.4689524      19683               2199 
    548500   2016.133       192984.98     -192531.83      13209.341     -179322.49      1.4689524      19683               2199 
    549000   1998.4716      185194.52     -192400.56      13093.627     -179306.93      1.4689524      19683               2199 
    549500   2002.6795      182868.63     -192371.99      13121.196     -179250.79      1.4689524      19683               2199 
    550000   1992.3342      193605.07     -192273.62      13053.416     -179220.2       1.4689524      19683               2199 
    550500   1974.5832      197832.21     -192131.53      12937.115     -179194.41      1.4689524      19683               2199 
    551000   1984.8084      193083.37     -192120.44      13004.108     -179116.34      1.4689524      19683               2199 
    551500   2034.2574      194159.89     -192280.5       13328.09      -178952.41      1.4689524      19683               2199 
    552000   1988.4757      193883.24     -191834.66      13028.136     -178806.52      1.4689524      19683               2199 
    552500   2045.8581      195197.53     -192167.45      13404.095     -178763.36      1.4689524      19683               2199 
    553000   2071.3279      188196.45     -192451.8       13570.969     -178880.83      1.4689524      19683               2199 
    553500   1985.9714      189608.31     -192146.67      13011.728     -179134.94      1.4689524      19683               2199 
    554000   1994.3498      176622.82     -192422.94      13066.622     -179356.32      1.4689524      19683               2199 
    554500   1969.6141      185219.18     -192429.29      12904.558     -179524.74      1.4689524      19683               2199 
    555000   1999.1239      177461.27     -192718.64      13097.901     -179620.74      1.4689524      19683               2199 
    555500   1971.8637      179265.12     -192592.38      12919.297     -179673.08      1.4689524      19683               2199 
    556000   1974.097       180026.73     -192594         12933.929     -179660.07      1.4689524      19683               2199 
    556500   1958.1996      192192.7      -192374.07      12829.772     -179544.3       1.4689524      19683               2199 
    557000   2029.0718      189825.2      -192570.3       13294.114     -179276.19      1.4689524      19683               2199 
    557500   2036.9344      196600.49     -192264.06      13345.629     -178918.43      1.4689524      19683               2199 
    558000   2065.0646      178195.89     -192268.45      13529.932     -178738.52      1.4689524      19683               2199 
    558500   2057.8532      184924.75     -192299.84      13482.685     -178817.15      1.4689524      19683               2199 
    559000   1983.6512      185131.96     -191971.58      12996.527     -178975.05      1.4689524      19683               2199 
    559500   2041.0735      189409.59     -192479.02      13372.747     -179106.28      1.4689524      19683               2199 
    560000   1980.1901      192801.27     -192212.39      12973.85      -179238.54      1.4689524      19683               2199 
    560500   1995.5667      194679.47     -192410.4       13074.595     -179335.81      1.4689524      19683               2199 
    561000   1959.9177      187312.07     -192241.55      12841.029     -179400.52      1.4689524      19683               2199 
    561500   1977.4925      182754.38     -192480.96      12956.176     -179524.78      1.4689524      19683               2199 
    562000   2001.5401      197320.53     -192752.43      13113.732     -179638.7       1.4689524      19683               2199 
    562500   1994.0906      179184.59     -192964.44      13064.924     -179899.51      1.4689524      19683               2199 
    563000   1934.1323      175688.96     -192880.59      12672.088     -180208.5       1.4689524      19683               2199 
    563500   1924.3908      190170.66     -192901.45      12608.263     -180293.19      1.4689524      19683               2199 
    564000   1939.1216      188811.71     -192912.08      12704.776     -180207.31      1.4689524      19683               2199 
    564500   1943.6399      173647.99     -192763.08      12734.38      -180028.7       1.4689524      19683               2199 
    565000   2023.5134      174241.16     -193118.77      13257.696     -179861.08      1.4689524      19683               2199 
    565500   1946.6085      187095.83     -192544.83      12753.829     -179791         1.4689524      19683               2199 
    566000   1969.9631      193858.68     -192616.74      12906.845     -179709.89      1.4689524      19683               2199 
    566500   2010.4662      185635.75     -192811.41      13172.214     -179639.2       1.4689524      19683               2199 
    567000   2025.6854      184128.44     -192842.17      13271.927     -179570.25      1.4689524      19683               2199 
    567500   1990.1211      187753.75     -192589.95      13038.916     -179551.04      1.4689524      19683               2199 
    568000   2016.5893      175560.95     -192813.28      13212.331     -179600.95      1.4689524      19683               2199 
    568500   1949.5359      181027.08     -192454.87      12773.01      -179681.86      1.4689524      19683               2199 
    569000   1995.7339      198083.46     -192867.11      13075.69      -179791.42      1.4689524      19683               2199 
    569500   1945.7214      187278.12     -192672.82      12748.018     -179924.8       1.4689524      19683               2199 
    570000   1990.0061      183672.7      -193030         13038.162     -179991.84      1.4689524      19683               2199 
    570500   1991.466       180658.83     -193051.78      13047.728     -180004.06      1.4689524      19683               2199 
    571000   1987.8702      182070.72     -192888.77      13024.169     -179864.6       1.4689524      19683               2199 
    571500   2000.3772      188336.69     -192713.97      13106.112     -179607.86      1.4689524      19683               2199 
    572000   1995.5823      185993.53     -192400.43      13074.697     -179325.73      1.4689524      19683               2199 
    572500   2029.9973      182390.65     -192479.48      13300.178     -179179.3       1.4689524      19683               2199 
    573000   1990.7093      188439.95     -192172.01      13042.77      -179129.24      1.4689524      19683               2199 
    573500   2025.7081      181948.42     -192429.35      13272.076     -179157.27      1.4689524      19683               2199 
    574000   2027.4296      186965.91     -192517.57      13283.355     -179234.22      1.4689524      19683               2199 
    574500   2002.1126      184115.21     -192509.52      13117.482     -179392.04      1.4689524      19683               2199 
    575000   1968.7609      184192.55     -192524.88      12898.968     -179625.91      1.4689524      19683               2199 
    575500   1989.4991      168306.74     -192923.04      13034.841     -179888.2       1.4689524      19683               2199 
    576000   1965.8655      174328.82     -192867.79      12879.998     -179987.79      1.4689524      19683               2199 
    576500   1983.6404      177517.39     -192916.77      12996.456     -179920.31      1.4689524      19683               2199 
    577000   1992.8852      191986.54     -192883.82      13057.026     -179826.79      1.4689524      19683               2199 
    577500   2026.7418      180353.64     -192986.25      13278.848     -179707.4       1.4689524      19683               2199 
    578000   1979.1504      187029.34     -192528.93      12967.038     -179561.89      1.4689524      19683               2199 
    578500   2014.9149      193481.99     -192554.79      13201.36      -179353.43      1.4689524      19683               2199 
    579000   1985.8336      184054.41     -192210.28      13010.825     -179199.45      1.4689524      19683               2199 
    579500   2036.3537      188029.44     -192449.63      13341.824     -179107.81      1.4689524      19683               2199 
    580000   2007.1723      186148.55     -192244.37      13150.633     -179093.74      1.4689524      19683               2199 
    580500   2023.3757      201029.04     -192477.1       13256.794     -179220.31      1.4689524      19683               2199 
    581000   1997.7656      182901.76     -192672.97      13089.002     -179583.96      1.4689524      19683               2199 
    581500   1947.4679      188808.26     -192676.27      12759.46      -179916.81      1.4689524      19683               2199 
    582000   1909.6708      188371.3      -192466.59      12511.82      -179954.77      1.4689524      19683               2199 
    582500   1935.8096      184291.68     -192563.66      12683.077     -179880.59      1.4689524      19683               2199 
    583000   1982.6316      182450.15     -192683.4       12989.846     -179693.56      1.4689524      19683               2199 
    583500   2009.7822      178826.45     -192639.65      13167.732     -179471.91      1.4689524      19683               2199 
    584000   2015.7234      200703.64     -192492.79      13206.658     -179286.14      1.4689524      19683               2199 
    584500   2007.3059      193723.8      -192309.49      13151.508     -179157.98      1.4689524      19683               2199 
    585000   2021.0634      197664.24     -192376.01      13241.644     -179134.37      1.4689524      19683               2199 
    585500   2057.6286      195332.94     -192697.87      13481.213     -179216.66      1.4689524      19683               2199 
    586000   2014.0675      184850.53     -192529.22      13195.809     -179333.41      1.4689524      19683               2199 
    586500   1964.8198      193911.41     -192413.06      12873.147     -179539.91      1.4689524      19683               2199 
    587000   1920.178       183130.31     -192449.68      12580.662     -179869.02      1.4689524      19683               2199 
    587500   1896.4067      186916.14     -192561.29      12424.916     -180136.37      1.4689524      19683               2199 
    588000   1896.7868      179253.49     -192572.4       12427.407     -180144.99      1.4689524      19683               2199 
    588500   1957.4447      185029.5      -192836.41      12824.826     -180011.58      1.4689524      19683               2199 
    589000   1939.751       188378.21     -192548.51      12708.901     -179839.6       1.4689524      19683               2199 
    589500   1962.8815      178259.69     -192548.56      12860.447     -179688.11      1.4689524      19683               2199 
    590000   2052.5131      194083.56     -192989.55      13447.698     -179541.85      1.4689524      19683               2199 
    590500   1974.0399      189309.01     -192398.47      12933.555     -179464.91      1.4689524      19683               2199 
    591000   2021.5485      187346.84     -192644.27      13244.823     -179399.44      1.4689524      19683               2199 
    591500   2043.7197      190688.75     -192767.69      13390.085     -179377.61      1.4689524      19683               2199 
    592000   1988.2157      186495.57     -192428.1       13026.432     -179401.67      1.4689524      19683               2199 
    592500   1978.8284      194423.47     -192377.03      12964.928     -179412.1       1.4689524      19683               2199 
    593000   2036.4976      187726.87     -192785.4       13342.767     -179442.63      1.4689524      19683               2199 
    593500   1963.0013      191706.84     -192384.03      12861.232     -179522.8       1.4689524      19683               2199 
    594000   2034.4077      180441.46     -192963.01      13329.074     -179633.94      1.4689524      19683               2199 
    594500   1975.2899      189714.86     -192684.85      12941.745     -179743.11      1.4689524      19683               2199 
    595000   1988.0177      188885.7      -192801.57      13025.135     -179776.44      1.4689524      19683               2199 
    595500   1975.883       189948.09     -192702.35      12945.631     -179756.72      1.4689524      19683               2199 
    596000   1966.4012      191545.47     -192484.41      12883.508     -179600.91      1.4689524      19683               2199 
    596500   2030.4012      187599.77     -192583.72      13302.824     -179280.9       1.4689524      19683               2199 
    597000   2025.3727      189837        -192319.28      13269.878     -179049.4       1.4689524      19683               2199 
    597500   2045.2607      189702.55     -192377.88      13400.181     -178977.7       1.4689524      19683               2199 
    598000   2058.8061      198814.89     -192509.36      13488.928     -179020.44      1.4689524      19683               2199 
    598500   2088.7101      186995.82     -192831.29      13684.853     -179146.44      1.4689524      19683               2199 
    599000   1977.4073      199266.1      -192285.65      12955.618     -179330.04      1.4689524      19683               2199 
    599500   1996.3839      180932.39     -192522.8       13079.949     -179442.85      1.4689524      19683               2199 
    600000   2008.2152      188969.53     -192656.88      13157.466     -179499.41      1.4689524      19683               2199 
    600500   2002.3267      190668.52     -192621.56      13118.885     -179502.67      1.4689524      19683               2199 
    601000   2029.4017      182478.24     -192831.41      13296.275     -179535.13      1.4689524      19683               2199 
    601500   2027.7935      190921.5      -192859.73      13285.739     -179573.99      1.4689524      19683               2199 
    602000   1995.6795      186460.51     -192701.83      13075.334     -179626.5       1.4689524      19683               2199 
    602500   1976.6719      177572.66     -192574.53      12950.799     -179623.73      1.4689524      19683               2199 
    603000   1966.0314      187158.94     -192486.35      12881.085     -179605.26      1.4689524      19683               2199 
    603500   1979.4286      187991.51     -192425.21      12968.861     -179456.34      1.4689524      19683               2199 
    604000   2056.5458      192180.07     -192669.74      13474.119     -179195.62      1.4689524      19683               2199 
    604500   2043.7578      182928.53     -192357.43      13390.334     -178967.1       1.4689524      19683               2199 
    605000   2077.4901      187644.12     -192497.98      13611.342     -178886.64      1.4689524      19683               2199 
    605500   2059.5713      181247.65     -192525.28      13493.941     -179031.34      1.4689524      19683               2199 
    606000   1978.5988      188724.7      -192264.69      12963.424     -179301.27      1.4689524      19683               2199 
    606500   2025.6495      194368.92     -192770.22      13271.692     -179498.53      1.4689524      19683               2199 
    607000   1961.391       185016.14     -192428.6       12850.682     -179577.91      1.4689524      19683               2199 
    607500   1996.8807      180895        -192680.48      13083.204     -179597.28      1.4689524      19683               2199 
    608000   2020.5446      187171.72     -192810.82      13238.246     -179572.57      1.4689524      19683               2199 
    608500   1963.4547      184344.2      -192433.77      12864.203     -179569.57      1.4689524      19683               2199 
    609000   2032.8687      180050.14     -192848.15      13318.991     -179529.16      1.4689524      19683               2199 
    609500   1980.3341      183858        -192430.89      12974.793     -179456.09      1.4689524      19683               2199 
    610000   1990.1644      191442.38     -192371.79      13039.2       -179332.59      1.4689524      19683               2199 
    610500   2034.1419      184786.99     -192530.25      13327.332     -179202.92      1.4689524      19683               2199 
    611000   2056.3041      191621.4      -192592.46      13472.535     -179119.92      1.4689524      19683               2199 
    611500   2033.1204      195737.73     -192410.81      13320.64      -179090.17      1.4689524      19683               2199 
    612000   2048.9959      203297.09     -192551.75      13424.653     -179127.09      1.4689524      19683               2199 
    612500   1987.2319      194848.2      -192357.99      13019.986     -179338         1.4689524      19683               2199 
    613000   1980.7797      190572.7      -192576.98      12977.713     -179599.26      1.4689524      19683               2199 
    613500   1994.7341      188354.44     -192807.08      13069.14      -179737.94      1.4689524      19683               2199 
    614000   1989.7149      184841.71     -192826.55      13036.255     -179790.29      1.4689524      19683               2199 
    614500   2005.8264      183592.24     -192884.14      13141.814     -179742.33      1.4689524      19683               2199 
    615000   2031.5282      189078.5      -192940.55      13310.208     -179630.34      1.4689524      19683               2199 
    615500   1995.3734      188187.08     -192584.95      13073.329     -179511.62      1.4689524      19683               2199 
    616000   1986.8066      197788.25     -192327.56      13017.2       -179310.36      1.4689524      19683               2199 
    616500   2070.1381      195287.71     -192496.64      13563.174     -178933.46      1.4689524      19683               2199 
    617000   2082.9726      191940.43     -192327.34      13647.263     -178680.08      1.4689524      19683               2199 
    617500   2061.2837      196750.93     -192176.22      13505.161     -178671.06      1.4689524      19683               2199 
    618000   2031.2508      200009.05     -192120.42      13308.391     -178812.03      1.4689524      19683               2199 
    618500   2028.8451      195919.7      -192290.96      13292.629     -178998.33      1.4689524      19683               2199 
    619000   2009.7826      189915.92     -192290.93      13167.735     -179123.19      1.4689524      19683               2199 
    619500   2000.4887      188053.47     -192336.9       13106.843     -179230.05      1.4689524      19683               2199 
    620000   1992.5315      184633.01     -192375.53      13054.709     -179320.82      1.4689524      19683               2199 
    620500   1975.2566      188456.94     -192356.65      12941.527     -179415.12      1.4689524      19683               2199 
    621000   2078.2496      188290.32     -193104.06      13616.318     -179487.74      1.4689524      19683               2199 
    621500   2016.5871      178895.56     -192800.99      13212.317     -179588.67      1.4689524      19683               2199 
    622000   1996.0438      183060.15     -192771         13077.721     -179693.28      1.4689524      19683               2199 
    622500   1955.7816      191556.48     -192623.97      12813.93      -179810.04      1.4689524      19683               2199 
    623000   1968.3332      188593.72     -192788.57      12896.166     -179892.4       1.4689524      19683               2199 
    623500   1935.4901      188947.92     -192620.33      12680.984     -179939.34      1.4689524      19683               2199 
    624000   2015.7101      191932.11     -193055.11      13206.571     -179848.54      1.4689524      19683               2199 
    624500   2015.2707      187561.81     -192793.68      13203.692     -179589.99      1.4689524      19683               2199 
    625000   2008.9752      188291.74     -192528.22      13162.445     -179365.78      1.4689524      19683               2199 
    625500   2023.062       181304.63     -192441.36      13254.739     -179186.62      1.4689524      19683               2199 
    626000   2024.4563      187535.6      -192428.92      13263.874     -179165.04      1.4689524      19683               2199 
    626500   2053.0231      189497.5      -192721.88      13451.039     -179270.84      1.4689524      19683               2199 
    627000   1984.356       195313.83     -192458.16      13001.144     -179457.02      1.4689524      19683               2199 
    627500   1974.8911      181278.85     -192605.85      12939.132     -179666.72      1.4689524      19683               2199 
    628000   2001.9044      180808.21     -193026.53      13116.118     -179910.41      1.4689524      19683               2199 
    628500   1932.3399      195013.68     -192706.42      12660.344     -180046.08      1.4689524      19683               2199 
    629000   1996.9286      178408.17     -193117.8       13083.518     -180034.28      1.4689524      19683               2199 
    629500   1966.6117      184821.39     -192882.92      12884.887     -179998.03      1.4689524      19683               2199 
    630000   1970.3957      195153.29     -192816.08      12909.679     -179906.4       1.4689524      19683               2199 
    630500   2026.6627      192087.04     -193050.69      13278.33      -179772.36      1.4689524      19683               2199 
    631000   1987.2646      190091.24     -192615.74      13020.201     -179595.54      1.4689524      19683               2199 
    631500   2032.3628      190238.18     -192726.45      13315.676     -179410.77      1.4689524      19683               2199 
    632000   1995.4824      191072.47     -192363.69      13074.042     -179289.65      1.4689524      19683               2199 
    632500   2069.5933      180440.92     -192822.4       13559.604     -179262.8       1.4689524      19683               2199 
    633000   1995.9436      188950.6      -192439.73      13077.064     -179362.66      1.4689524      19683               2199 
    633500   1993.563       186989.27     -192645.71      13061.467     -179584.25      1.4689524      19683               2199 
    634000   1954.8861      176012.43     -192832.02      12808.063     -180023.96      1.4689524      19683               2199 
    634500   1955.2321      187591.69     -193015.03      12810.33      -180204.7       1.4689524      19683               2199 
    635000   1943.2241      179096.5      -192884.82      12731.656     -180153.17      1.4689524      19683               2199 
    635500   1976.038       189313.02     -192988.98      12946.646     -180042.34      1.4689524      19683               2199 
    636000   1995.612       179196.02     -192901         13074.891     -179826.11      1.4689524      19683               2199 
    636500   1991.7455      187059.44     -192674.29      13049.559     -179624.73      1.4689524      19683               2199 
    637000   2052.5405      175549.22     -192932.5       13447.877     -179484.62      1.4689524      19683               2199 
    637500   1976.8807      193334.98     -192375.99      12952.167     -179423.82      1.4689524      19683               2199 
    638000   2062.008       176930.78     -192936.21      13509.907     -179426.3       1.4689524      19683               2199 
    638500   2024.0227      182968.3      -192799.65      13261.033     -179538.61      1.4689524      19683               2199 
    639000   2006.1694      197636.97     -192953.59      13144.062     -179809.53      1.4689524      19683               2199 
    639500   1955.0332      186150.4      -192899.94      12809.026     -180090.92      1.4689524      19683               2199 
    640000   1963.207       190413.41     -193073.2       12862.58      -180210.62      1.4689524      19683               2199 
    640500   1956.3072      183438.48     -193038.63      12817.374     -180221.26      1.4689524      19683               2199 
    641000   1979.6966      179887.9      -193125.99      12970.617     -180155.37      1.4689524      19683               2199 
    641500   1973.6928      179071.89     -192983.9       12931.281     -180052.62      1.4689524      19683               2199 
    642000   1980.4335      190385.03     -192892.58      12975.445     -179917.13      1.4689524      19683               2199 
    642500   1987.0197      189071.96     -192784.12      13018.596     -179765.53      1.4689524      19683               2199 
    643000   2007.3438      190471.03     -192792.39      13151.756     -179640.63      1.4689524      19683               2199 
    643500   2038.6627      186701.15     -192920.16      13356.952     -179563.21      1.4689524      19683               2199 
    644000   2030.3531      184705.83     -192847.35      13302.509     -179544.84      1.4689524      19683               2199 
    644500   2024.5673      178428.79     -192829.66      13264.601     -179565.06      1.4689524      19683               2199 
    645000   2004.5645      195434.15     -192740.44      13133.547     -179606.89      1.4689524      19683               2199 
    645500   1980.3998      178799.69     -192787.5       12975.224     -179812.27      1.4689524      19683               2199 
    646000   1951.4847      179989.41     -192910.8       12785.777     -180125.02      1.4689524      19683               2199 
    646500   2007.4329      177967.34     -193451.2       13152.34      -180298.86      1.4689524      19683               2199 
    647000   1967.1147      195443.72     -193227.37      12888.183     -180339.19      1.4689524      19683               2199 
    647500   2004.2462      178857        -193384         13131.461     -180252.54      1.4689524      19683               2199 
    648000   1968.0511      180052.28     -192931.28      12894.318     -180036.96      1.4689524      19683               2199 
    648500   1977.2093      193512.75     -192704.74      12954.32      -179750.42      1.4689524      19683               2199 
    649000   2024.8163      190170.66     -192892.54      13266.233     -179626.31      1.4689524      19683               2199 
    649500   2045.9928      184526.37     -193008.88      13404.978     -179603.9       1.4689524      19683               2199 
    650000   2016.7844      186067.58     -192827.11      13213.61      -179613.5       1.4689524      19683               2199 
    650500   2005.9513      193688.52     -192788.06      13142.633     -179645.43      1.4689524      19683               2199 
    651000   2037.8475      191078.64     -193081.6       13351.611     -179729.99      1.4689524      19683               2199 
    651500   1998.3935      185131.3      -192978.99      13093.115     -179885.87      1.4689524      19683               2199 
    652000   1928.6102      187793.03     -192682.35      12635.908     -180046.44      1.4689524      19683               2199 
    652500   1966.3305      183634.45     -192998.18      12883.045     -180115.14      1.4689524      19683               2199 
    653000   1932.9915      187028.13     -192725.26      12664.613     -180060.64      1.4689524      19683               2199 
    653500   2014.9517      185554.94     -192936.8       13201.602     -179735.2       1.4689524      19683               2199 
    654000   2020.3057      195520.13     -192562.36      13236.681     -179325.68      1.4689524      19683               2199 
    654500   2044.8798      178521.5      -192572.1       13397.685     -179174.41      1.4689524      19683               2199 
    655000   2014.7788      191695.8      -192370.09      13200.469     -179169.62      1.4689524      19683               2199 
    655500   2056.478       193584.12     -192756.23      13473.675     -179282.55      1.4689524      19683               2199 
    656000   1963.7833      189790.11     -192418         12866.356     -179551.65      1.4689524      19683               2199 
    656500   1964.9788      182725.18     -192649.26      12874.189     -179775.07      1.4689524      19683               2199 
    657000   2016.7513      178807.07     -193067.29      13213.393     -179853.9       1.4689524      19683               2199 
    657500   2033.012       175148.27     -193181.74      13319.93      -179861.81      1.4689524      19683               2199 
    658000   2000.6587      193856.23     -192964.02      13107.957     -179856.06      1.4689524      19683               2199 
    658500   2000.3497      194563.87     -192911.39      13105.932     -179805.46      1.4689524      19683               2199 
    659000   1937.0448      207007.77     -192403.57      12691.17      -179712.4       1.4689524      19683               2199 
    659500   2032.4828      188660.69     -192780.91      13316.462     -179464.45      1.4689524      19683               2199 
    660000   2064.5169      185806.69     -192702.52      13526.344     -179176.17      1.4689524      19683               2199 
    660500   2071.0895      187043.29     -192605.38      13569.407     -179035.97      1.4689524      19683               2199 
    661000   2054.304       196888.44     -192533.34      13459.431     -179073.91      1.4689524      19683               2199 
    661500   1998.2267      186674.69     -192400.41      13092.023     -179308.38      1.4689524      19683               2199 
    662000   1989.77        190688.64     -192662.58      13036.616     -179625.96      1.4689524      19683               2199 
    662500   2039.9802      181366.26     -193144.72      13365.584     -179779.13      1.4689524      19683               2199 
    663000   2043.4831      184718.53     -193200.8       13388.534     -179812.27      1.4689524      19683               2199 
    663500   1986.182       180961.91     -192817.19      13013.108     -179804.08      1.4689524      19683               2199 
    664000   1968.8473      195953.91     -192628.59      12899.534     -179729.06      1.4689524      19683               2199 
    664500   1982.1582      196417.06     -192586.17      12986.744     -179599.43      1.4689524      19683               2199 
    665000   2039.7864      188531.42     -192820.79      13364.314     -179456.47      1.4689524      19683               2199 
    665500   2011.5233      189175.64     -192518.84      13179.14      -179339.7       1.4689524      19683               2199 
    666000   2029.5993      195733.5      -192487.87      13297.57      -179190.3       1.4689524      19683               2199 
    666500   2056.9473      190441.82     -192522.45      13476.749     -179045.7       1.4689524      19683               2199 
    667000   2093.3798      190051.23     -192628.57      13715.449     -178913.12      1.4689524      19683               2199 
    667500   2035.5136      189825.59     -192340.98      13336.32      -179004.66      1.4689524      19683               2199 
    668000   2017.1341      189145.39     -192500.67      13215.901     -179284.77      1.4689524      19683               2199 
    668500   2038.1888      183989.36     -192945.87      13353.847     -179592.02      1.4689524      19683               2199 
    669000   1984.854       187599.3      -192737.74      13004.407     -179733.33      1.4689524      19683               2199 
    669500   2028.8261      181780.22     -193067.54      13292.504     -179775.04      1.4689524      19683               2199 
    670000   1992.4728      175284.97     -192828.46      13054.324     -179774.14      1.4689524      19683               2199 
    670500   1994.7349      181529.27     -192836.87      13069.145     -179767.73      1.4689524      19683               2199 
    671000   1984.8221      190848.34     -192677.2       13004.198     -179673         1.4689524      19683               2199 
    671500   2001.6567      183029.59     -192625.72      13114.496     -179511.22      1.4689524      19683               2199 
    672000   2018.6886      191960.6      -192512.33      13226.085     -179286.24      1.4689524      19683               2199 
    672500   2050.2773      204349.6      -192495.13      13433.049     -179062.08      1.4689524      19683               2199 
    673000   2075.1034      188305.06     -192560.26      13595.705     -178964.56      1.4689524      19683               2199 
    673500   2042.9551      183858.28     -192502.31      13385.075     -179117.24      1.4689524      19683               2199 
    674000   1983.9894      184521.61     -192502.48      12998.742     -179503.74      1.4689524      19683               2199 
    674500   1984.1962      189443.26     -192746.16      13000.098     -179746.06      1.4689524      19683               2199 
    675000   1977.5318      184770.81     -192785.62      12956.434     -179829.18      1.4689524      19683               2199 
    675500   1961.5968      188294.6      -192681.13      12852.03      -179829.1       1.4689524      19683               2199 
    676000   1934.3726      182684.85     -192388.34      12673.662     -179714.67      1.4689524      19683               2199 
    676500   1999.4063      183145.19     -192618.61      13099.751     -179518.85      1.4689524      19683               2199 
    677000   2010.7549      194800.85     -192541         13174.105     -179366.89      1.4689524      19683               2199 
    677500   2035.3829      193573.1      -192658.33      13335.463     -179322.86      1.4689524      19683               2199 
    678000   2018.7231      184781.18     -192595.52      13226.311     -179369.21      1.4689524      19683               2199 
    678500   2043.0852      177315.12     -192976.8       13385.927     -179590.87      1.4689524      19683               2199 
    679000   1964.5047      187004.24     -192819.19      12871.082     -179948.1       1.4689524      19683               2199 
    679500   1940.774       191433.3      -192812.06      12715.603     -180096.45      1.4689524      19683               2199 
    680000   1969.5137      180130.27     -193000.63      12903.9       -180096.73      1.4689524      19683               2199 
    680500   1977.0325      184590.13     -192947.66      12953.162     -179994.5       1.4689524      19683               2199 
    681000   2029.4643      175265.01     -193119.24      13296.686     -179822.56      1.4689524      19683               2199 
    681500   1989.5242      189773.17     -192723.18      13035.005     -179688.17      1.4689524      19683               2199 
    682000   1971.4174      190830.27     -192531.79      12916.373     -179615.42      1.4689524      19683               2199 
    682500   1969.2288      192543.71     -192389.54      12902.033     -179487.51      1.4689524      19683               2199 
    683000   2021.6074      190778.1      -192493.52      13245.209     -179248.31      1.4689524      19683               2199 
    683500   2031.7995      189445.28     -192188.53      13311.986     -178876.54      1.4689524      19683               2199 
    684000   2027.2529      193806.67     -191931.69      13282.197     -178649.5       1.4689524      19683               2199 
    684500   2023.8317      201648.25     -191938.27      13259.782     -178678.49      1.4689524      19683               2199 
    685000   2080.9789      199485.7      -192554.3       13634.2       -178920.1       1.4689524      19683               2199 
    685500   2013.1418      180620.71     -192382.19      13189.744     -179192.44      1.4689524      19683               2199 
    686000   2010.0008      198362.02     -192476.17      13169.164     -179307         1.4689524      19683               2199 
    686500   2017.5125      183784.99     -192645.92      13218.38      -179427.54      1.4689524      19683               2199 
    687000   2044.4739      181919.73     -192954.11      13395.026     -179559.09      1.4689524      19683               2199 
    687500   2013.4114      191643.64     -192896.29      13191.51      -179704.78      1.4689524      19683               2199 
    688000   1969.1979      183034.53     -192763.4       12901.831     -179861.57      1.4689524      19683               2199 
    688500   1954.7962      185547.8      -192775.82      12807.474     -179968.35      1.4689524      19683               2199 
    689000   1977.8519      181246.99     -193020.6       12958.53      -180062.07      1.4689524      19683               2199 
    689500   1923.4248      190244.17     -192653.89      12601.934     -180051.96      1.4689524      19683               2199 
    690000   1986.1546      184009.42     -192870.37      13012.929     -179857.44      1.4689524      19683               2199 
    690500   2039.1568      183327.57     -192801.94      13360.189     -179441.75      1.4689524      19683               2199 
    691000   2035.9385      190600.83     -192531.38      13339.104     -179192.27      1.4689524      19683               2199 
    691500   2050.7432      187220.81     -192569.37      13436.101     -179133.27      1.4689524      19683               2199 
    692000   2029.6723      191275.31     -192491.16      13298.048     -179193.11      1.4689524      19683               2199 
    692500   2000.0642      188063.55     -192480.29      13104.062     -179376.23      1.4689524      19683               2199 
    693000   1981.4628      183733.47     -192524.36      12982.188     -179542.17      1.4689524      19683               2199 
    693500   2000.6459      179068.15     -192775.48      13107.873     -179667.61      1.4689524      19683               2199 
    694000   1987.9647      196065.76     -192761.49      13024.788     -179736.71      1.4689524      19683               2199 
    694500   1950.6384      183132.72     -192547.53      12780.233     -179767.3       1.4689524      19683               2199 
    695000   1983.1895      178439.27     -192761.35      12993.502     -179767.85      1.4689524      19683               2199 
    695500   1989.4171      185718.61     -192708.85      13034.304     -179674.54      1.4689524      19683               2199 
    696000   2024.0283      192236.21     -192593.2       13261.07      -179332.13      1.4689524      19683               2199 
    696500   2075.4221      185350.76     -192478.51      13597.793     -178880.72      1.4689524      19683               2199 
    697000   2058.5692      190808.01     -192270.66      13487.376     -178783.28      1.4689524      19683               2199 
    697500   2027.2671      191998.78     -192189.84      13282.29      -178907.55      1.4689524      19683               2199 
    698000   2024.62        182740.77     -192419.17      13264.947     -179154.23      1.4689524      19683               2199 
    698500   2032.4424      188616.74     -192725.43      13316.198     -179409.24      1.4689524      19683               2199 
    699000   1995.6134      191048.56     -192711.72      13074.901     -179636.82      1.4689524      19683               2199 
    699500   1969.4653      191713.21     -192675.53      12903.583     -179771.95      1.4689524      19683               2199 
    700000   1990.3857      186407.04     -192848.81      13040.65      -179808.16      1.4689524      19683               2199 
    700500   2031.6887      177323.79     -193043.02      13311.26      -179731.76      1.4689524      19683               2199 
    701000   1980.2627      183780.29     -192527.54      12974.325     -179553.21      1.4689524      19683               2199 
    701500   2046.6514      192799.75     -192769.57      13409.293     -179360.28      1.4689524      19683               2199 
    702000   2040.7621      190011.06     -192600.62      13370.707     -179229.91      1.4689524      19683               2199 
    702500   2032.746       186614.05     -192518.34      13318.187     -179200.15      1.4689524      19683               2199 
    703000   1987.4918      182336.73     -192413.31      13021.69      -179391.62      1.4689524      19683               2199 
    703500   1937.4786      178843.35     -192508.28      12694.012     -179814.27      1.4689524      19683               2199 
    704000   1976.1124      177349.18     -192933.3       12947.133     -179986.17      1.4689524      19683               2199 
    704500   1990.5231      175857.2      -193025.49      13041.55      -179983.94      1.4689524      19683               2199 
    705000   1987.4616      182848.38     -192855.89      13021.491     -179834.4       1.4689524      19683               2199 
    705500   2018.8071      195672.95     -192830.02      13226.862     -179603.16      1.4689524      19683               2199 
    706000   1990.8797      185336.61     -192459.94      13043.887     -179416.06      1.4689524      19683               2199 
    706500   2049.4114      188738        -192732.73      13427.376     -179305.36      1.4689524      19683               2199 
    707000   2027.4649      189251.54     -192549.6       13283.586     -179266.01      1.4689524      19683               2199 
    707500   1990.3517      191134.53     -192367.26      13040.427     -179326.83      1.4689524      19683               2199 
    708000   1996.8504      187030.75     -192490.83      13083.005     -179407.82      1.4689524      19683               2199 
    708500   2032.9402      187807.04     -192981.08      13319.459     -179661.62      1.4689524      19683               2199 
    709000   1971.1443      181448.91     -192993.79      12914.584     -180079.21      1.4689524      19683               2199 
    709500   1933.4305      180050.1      -192866.81      12667.49      -180199.32      1.4689524      19683               2199 
    710000   1916.5589      186911.45     -192684.5       12556.95      -180127.55      1.4689524      19683               2199 
    710500   1968.6524      188232.4      -192796.71      12898.257     -179898.45      1.4689524      19683               2199 
    711000   1986.7665      191026.32     -192657.93      13016.937     -179640.99      1.4689524      19683               2199 
    711500   1993.8491      190118.56     -192501.9       13063.341     -179438.56      1.4689524      19683               2199 
    712000   2015.5382      191229.11     -192552.15      13205.445     -179346.7       1.4689524      19683               2199 
    712500   2042.7195      187704.93     -192696.86      13383.532     -179313.33      1.4689524      19683               2199 
    713000   2053.4559      184989.02     -192763.51      13453.874     -179309.63      1.4689524      19683               2199 
    713500   2023.6346      186072.42     -192644.19      13258.49      -179385.7       1.4689524      19683               2199 
    714000   1948.2556      189343.98     -192337.98      12764.621     -179573.36      1.4689524      19683               2199 
    714500   1980.5         191119.9      -192818.18      12975.88      -179842.3       1.4689524      19683               2199 
    715000   1976.6269      186491.94     -192991.21      12950.504     -180040.7       1.4689524      19683               2199 
    715500   1946.0793      186364.57     -192837.6       12750.363     -180087.24      1.4689524      19683               2199 
    716000   1967.8425      191012.3      -192929.16      12892.951     -180036.21      1.4689524      19683               2199 
    716500   2004.9314      188246.34     -193016.03      13135.95      -179880.08      1.4689524      19683               2199 
    717000   2001.4144      183288.77     -192758.26      13112.908     -179645.35      1.4689524      19683               2199 
    717500   2029.1279      197316.21     -192658.3       13294.481     -179363.82      1.4689524      19683               2199 
    718000   2037.7851      186767.19     -192543.01      13351.202     -179191.81      1.4689524      19683               2199 
    718500   2043.6651      194260.96     -192550.64      13389.727     -179160.91      1.4689524      19683               2199 
    719000   2050.8324      191598.93     -192677.04      13436.686     -179240.35      1.4689524      19683               2199 
    719500   2031.7968      182882.95     -192671.55      13311.968     -179359.58      1.4689524      19683               2199 
    720000   1981.6122      193747.96     -192501.57      12983.167     -179518.4       1.4689524      19683               2199 
    720500   2033.0287      176460.7      -193039.72      13320.039     -179719.68      1.4689524      19683               2199 
    721000   2004.2238      182223.48     -193024.01      13131.314     -179892.69      1.4689524      19683               2199 
    721500   1955.3527      186801.83     -192769.04      12811.12      -179957.92      1.4689524      19683               2199 
    722000   1974.2942      195753.43     -192870.63      12935.221     -179935.41      1.4689524      19683               2199 
    722500   1966.9844      183542.39     -192734.39      12887.329     -179847.06      1.4689524      19683               2199 
    723000   2022.6274      177150.28     -192913         13251.892     -179661.11      1.4689524      19683               2199 
    723500   2023.1319      186153.04     -192635.01      13255.197     -179379.81      1.4689524      19683               2199 
    724000   2032.5429      185785.13     -192442.65      13316.856     -179125.8       1.4689524      19683               2199 
    724500   2054.3492      180657.09     -192504.3       13459.727     -179044.58      1.4689524      19683               2199 
    725000   2065.3472      192214.88     -192638.37      13531.784     -179106.59      1.4689524      19683               2199 
    725500   2026.0841      195987.36     -192488.15      13274.539     -179213.61      1.4689524      19683               2199 
    726000   2015.0581      185601.39     -192538.86      13202.299     -179336.56      1.4689524      19683               2199 
    726500   1994.4371      197909.24     -192440.5       13067.194     -179373.3       1.4689524      19683               2199 
    727000   2007.5305      195977.57     -192509.31      13152.98      -179356.33      1.4689524      19683               2199 
    727500   2001.8454      187186.98     -192506.75      13115.731     -179391.02      1.4689524      19683               2199 
    728000   1960.7662      185855.78     -192326.8       12846.588     -179480.21      1.4689524      19683               2199 
    728500   1959.0057      194421.15     -192419.12      12835.053     -179584.07      1.4689524      19683               2199 
    729000   1957.6559      190312.49     -192625.1       12826.21      -179798.89      1.4689524      19683               2199 
    729500   1961.0527      186355.3      -192939.55      12848.465     -180091.09      1.4689524      19683               2199 
    730000   1960.5588      184081.6      -193127.17      12845.229     -180281.94      1.4689524      19683               2199 
    730500   1966.4172      190304.71     -193166.95      12883.612     -180283.34      1.4689524      19683               2199 
    731000   1985.5309      181969.25     -193200.08      13008.842     -180191.24      1.4689524      19683               2199 
    731500   1974.1793      183108.73     -192979.29      12934.468     -180044.83      1.4689524      19683               2199 
    732000   1940.1329      190695.27     -192655.02      12711.403     -179943.62      1.4689524      19683               2199 
    732500   1968.1237      196448.23     -192762.44      12894.793     -179867.64      1.4689524      19683               2199 
    733000   1995.0538      174882.94     -192788.27      13071.234     -179717.03      1.4689524      19683               2199 
    733500   2037.8077      184793.76     -192902.53      13351.35      -179551.18      1.4689524      19683               2199 
    734000   1984.4561      182434.12     -192401.72      13001.8       -179399.92      1.4689524      19683               2199 
    734500   2042.5583      182912.67     -192695.75      13382.476     -179313.28      1.4689524      19683               2199 
    735000   2034.1561      191478.23     -192614.91      13327.425     -179287.49      1.4689524      19683               2199 
    735500   2087.7332      184852.05     -193005.67      13678.453     -179327.22      1.4689524      19683               2199 
    736000   1976.7684      190320.71     -192565.35      12951.432     -179613.92      1.4689524      19683               2199 
    736500   1966.0297      185080.68     -192746.04      12881.074     -179864.96      1.4689524      19683               2199 
    737000   1963.5383      183890.12     -192805.85      12864.75      -179941.1       1.4689524      19683               2199 
    737500   1978.6781      188723.41     -192876         12963.943     -179912.06      1.4689524      19683               2199 
    738000   1935.8865      182844.29     -192476.84      12683.581     -179793.26      1.4689524      19683               2199 
    738500   2015.1432      184312.6      -192810.98      13202.856     -179608.12      1.4689524      19683               2199 
    739000   2009.7283      192075.51     -192658.25      13167.379     -179490.87      1.4689524      19683               2199 
    739500   2015.9535      196968.33     -192647.21      13208.166     -179439.05      1.4689524      19683               2199 
    740000   1986.7862      197209.48     -192492.61      13017.067     -179475.55      1.4689524      19683               2199 
    740500   1969.8858      191430.12     -192391.05      12906.338     -179484.71      1.4689524      19683               2199 
    741000   2031.886       191619.66     -192780.43      13312.553     -179467.88      1.4689524      19683               2199 
    741500   2008.2675      182668.3      -192628.6       13157.808     -179470.79      1.4689524      19683               2199 
    742000   2040.402       181984.17     -192938.05      13368.347     -179569.7       1.4689524      19683               2199 
    742500   1982.9098      176714.71     -192785.21      12991.669     -179793.54      1.4689524      19683               2199 
    743000   1982.0932      179676.74     -193162.42      12986.319     -180176.1       1.4689524      19683               2199 
    743500   1962.3163      183379.98     -193177.91      12856.744     -180321.17      1.4689524      19683               2199 
    744000   1956.0134      183616.8      -193103.47      12815.449     -180288.02      1.4689524      19683               2199 
    744500   1923.1493      178852.55     -192773.3       12600.129     -180173.17      1.4689524      19683               2199 
    745000   2000.1246      189745.91     -193100.46      13104.457     -179996         1.4689524      19683               2199 
    745500   1994.2093      181026.1      -192879.45      13065.702     -179813.75      1.4689524      19683               2199 
    746000   2045.3716      183990.97     -193084.99      13400.908     -179684.09      1.4689524      19683               2199 
    746500   2033.4317      184946.86     -192903.17      13322.68      -179580.49      1.4689524      19683               2199 
    747000   2024.111       188948.63     -192778.78      13261.612     -179517.17      1.4689524      19683               2199 
    747500   2005.8826      192247.03     -192648.17      13142.183     -179505.99      1.4689524      19683               2199 
    748000   2042.8556      179763.99     -192969.41      13384.423     -179584.98      1.4689524      19683               2199 
    748500   2012.9863      179921.53     -193137.14      13188.725     -179948.41      1.4689524      19683               2199 
    749000   1978.75        182332.82     -193244.98      12964.415     -180280.57      1.4689524      19683               2199 
    749500   1968.6953      189087.67     -193236.19      12898.538     -180337.65      1.4689524      19683               2199 
    750000   1944.0678      182542.86     -192961.82      12737.183     -180224.64      1.4689524      19683               2199 
    750500   1989.6909      194483.43     -193073.93      13036.098     -180037.83      1.4689524      19683               2199 
    751000   2016.2185      197599.69     -193022.71      13209.902     -179812.81      1.4689524      19683               2199 
    751500   2009.0818      180491.67     -192829.56      13163.143     -179666.41      1.4689524      19683               2199 
    752000   2026.987       194032.74     -192885.26      13280.455     -179604.81      1.4689524      19683               2199 
    752500   2028.9959      196135.52     -192878.89      13293.617     -179585.28      1.4689524      19683               2199 
    753000   1995.5421      184167.79     -192673.81      13074.434     -179599.38      1.4689524      19683               2199 
    753500   2016.0052      184598.13     -192822.11      13208.504     -179613.61      1.4689524      19683               2199 
    754000   2019.341       187906.92     -192944.63      13230.36      -179714.27      1.4689524      19683               2199 
    754500   1983.3772      193242.11     -192997.35      12994.732     -180002.61      1.4689524      19683               2199 
    755000   1967.6329      179342.88     -193132.75      12891.577     -180241.17      1.4689524      19683               2199 
    755500   1948.6058      193911.52     -193062.88      12766.915     -180295.97      1.4689524      19683               2199 
    756000   1919.5603      184743.16     -192748.69      12576.614     -180172.08      1.4689524      19683               2199 
    756500   1998.4797      196379.15     -192999.13      13093.68      -179905.45      1.4689524      19683               2199 
    757000   2009.1825      187613.28     -192827.92      13163.803     -179664.11      1.4689524      19683               2199 
    757500   2025.9038      192800.72     -192830.89      13273.358     -179557.53      1.4689524      19683               2199 
    758000   2020.8521      186176.87     -192817         13240.26      -179576.74      1.4689524      19683               2199 
    758500   1977.0713      192991.32     -192582.85      12953.417     -179629.43      1.4689524      19683               2199 
    759000   1993.7942      197332.4      -192739.55      13062.982     -179676.57      1.4689524      19683               2199 
    759500   2034.1724      185517.16     -193083.84      13327.532     -179756.3       1.4689524      19683               2199 
    760000   2029.1907      179480.9      -193162.62      13294.893     -179867.72      1.4689524      19683               2199 
    760500   1976.5525      182058.14     -193034.95      12950.017     -180084.93      1.4689524      19683               2199 
    761000   1908.6723      175631.64     -192902.02      12505.278     -180396.74      1.4689524      19683               2199 
    761500   1963.024       182262.48     -193470.25      12861.381     -180608.87      1.4689524      19683               2199 
    762000   1918.018       181196.21     -193144.47      12566.509     -180577.96      1.4689524      19683               2199 
    762500   1908.3687      186619.5      -192836.83      12503.289     -180333.54      1.4689524      19683               2199 
    763000   1970.241       192552.08     -192923.29      12908.665     -180014.62      1.4689524      19683               2199 
    763500   2014.0428      187056.46     -193052.93      13195.647     -179857.28      1.4689524      19683               2199 
    764000   2018.5508      187536.38     -193002.26      13225.183     -179777.08      1.4689524      19683               2199 
    764500   2000.5645      194151.93     -192796.15      13107.34      -179688.81      1.4689524      19683               2199 
    765000   2017.7782      194291.95     -192843.23      13220.12      -179623.11      1.4689524      19683               2199 
    765500   1982.7731      184192.04     -192528.16      12990.774     -179537.39      1.4689524      19683               2199 
    766000   2084.3795      185190.23     -193167.28      13656.48      -179510.8       1.4689524      19683               2199 
    766500   2015.7094      198749.88     -192786.96      13206.566     -179580.39      1.4689524      19683               2199 
    767000   2013.3761      193832.31     -192930.97      13191.279     -179739.7       1.4689524      19683               2199 
    767500   2014.2746      172518.59     -193162.02      13197.166     -179964.85      1.4689524      19683               2199 
    768000   2028.4068      183405.89     -193434.23      13289.757     -180144.48      1.4689524      19683               2199 
    768500   1945.5281      195980.87     -192990.86      12746.751     -180244.11      1.4689524      19683               2199 
    769000   1986.2457      182511.82     -193247.75      13013.525     -180234.22      1.4689524      19683               2199 
    769500   1988.6715      199090.26     -193128.42      13029.419     -180099         1.4689524      19683               2199 
    770000   2014.3717      184219.89     -192976.56      13197.802     -179778.76      1.4689524      19683               2199 
    770500   2051.9456      189980.38     -192811.55      13443.979     -179367.57      1.4689524      19683               2199 
    771000   2075.0155      198399.33     -192835.2       13595.129     -179240.08      1.4689524      19683               2199 
    771500   2032.0221      194870.66     -192579.19      13313.444     -179265.75      1.4689524      19683               2199 
    772000   2044.898       194531.61     -192777.01      13397.804     -179379.21      1.4689524      19683               2199 
    772500   1961.0972      198710.04     -192428.79      12848.757     -179580.03      1.4689524      19683               2199 
    773000   2011.0896      197164.07     -192949.06      13176.298     -179772.76      1.4689524      19683               2199 
    773500   1996.1463      193114        -193014.76      13078.393     -179936.37      1.4689524      19683               2199 
    774000   1973.3858      179841.48     -192979.04      12929.269     -180049.78      1.4689524      19683               2199 
    774500   1962.4948      179893.96     -192999.17      12857.914     -180141.25      1.4689524      19683               2199 
    775000   2028.1216      180063.18     -193449.36      13287.889     -180161.47      1.4689524      19683               2199 
    775500   1959.366       198981.01     -192932.71      12837.414     -180095.3       1.4689524      19683               2199 
    776000   2013.0184      187976.09     -193092.9       13188.935     -179903.97      1.4689524      19683               2199 
    776500   2023.7621      193402.54     -192779.99      13259.326     -179520.67      1.4689524      19683               2199 
    777000   2059.5622      195330.11     -192691.34      13493.882     -179197.45      1.4689524      19683               2199 
    777500   2029.5721      185224.21     -192483.68      13297.392     -179186.29      1.4689524      19683               2199 
    778000   2017.7104      187245.26     -192489.64      13219.676     -179269.96      1.4689524      19683               2199 
    778500   2050.5559      192381.31     -192848.65      13434.874     -179413.78      1.4689524      19683               2199 
    779000   2006.8667      202399.33     -192740.13      13148.63      -179591.5       1.4689524      19683               2199 
    779500   1984.4161      185966.17     -192735.03      13001.538     -179733.5       1.4689524      19683               2199 
    780000   1975.8429      184592.24     -192781.98      12945.368     -179836.61      1.4689524      19683               2199 
    780500   1983.6415      186443.5      -192870.75      12996.463     -179874.29      1.4689524      19683               2199 
    781000   2007.0708      186408.8      -193032.56      13149.968     -179882.59      1.4689524      19683               2199 
    781500   1953.0958      187354        -192714.45      12796.333     -179918.12      1.4689524      19683               2199 
    782000   2001.8148      191103.83     -193057.43      13115.531     -179941.9       1.4689524      19683               2199 
    782500   1978.7484      189382        -192950.48      12964.404     -179986.08      1.4689524      19683               2199 
    783000   1982.1272      184869.64     -192921.52      12986.542     -179934.98      1.4689524      19683               2199 
    783500   2036.5102      187342.99     -193096.58      13342.849     -179753.74      1.4689524      19683               2199 
    784000   2021.1985      189914.03     -192789.75      13242.529     -179547.22      1.4689524      19683               2199 
    784500   2032.8127      192012.52     -192788.32      13318.624     -179469.7       1.4689524      19683               2199 
    785000   2024.2395      180314.94     -192754.33      13262.454     -179491.88      1.4689524      19683               2199 
    785500   1966.0161      190374.86     -192579.6       12880.984     -179698.61      1.4689524      19683               2199 
    786000   1960.1954      184599.93     -192780.09      12842.848     -179937.24      1.4689524      19683               2199 
    786500   1973.404       182215.43     -193024.63      12929.389     -180095.24      1.4689524      19683               2199 
    787000   1948.0022      191535.14     -192860.81      12762.96      -180097.84      1.4689524      19683               2199 
    787500   1958.5385      186625.23     -192858.35      12831.993     -180026.35      1.4689524      19683               2199 
    788000   1952.6502      192285.31     -192703.62      12793.414     -179910.2       1.4689524      19683               2199 
    788500   2010.3013      183783.62     -192961.41      13171.133     -179790.28      1.4689524      19683               2199 
    789000   2030.3004      188742.93     -193016.59      13302.164     -179714.43      1.4689524      19683               2199 
    789500   1984.1842      189327.89     -192656.97      13000.019     -179656.95      1.4689524      19683               2199 
    790000   2035.3398      189162.88     -192929.51      13335.181     -179594.33      1.4689524      19683               2199 
    790500   2054.9089      188322.99     -193089.01      13463.394     -179625.61      1.4689524      19683               2199 
    791000   2009.8632      185672.87     -192918.31      13168.263     -179750.05      1.4689524      19683               2199 
    791500   1999.7995      185314.11     -192972.93      13102.327     -179870.61      1.4689524      19683               2199 
    792000   1970.9281      179962.27     -192930.41      12913.167     -180017.24      1.4689524      19683               2199 
    792500   1961.9141      190091.97     -192988.87      12854.109     -180134.76      1.4689524      19683               2199 
    793000   2015.9049      185114.85     -193461.59      13207.847     -180253.74      1.4689524      19683               2199 
    793500   1972.1745      195543.57     -193302.94      12921.333     -180381.61      1.4689524      19683               2199 
    794000   1956.2907      192322.41     -193195.39      12817.265     -180378.12      1.4689524      19683               2199 
    794500   1988.4995      180209.19     -193236.08      13028.292     -180207.79      1.4689524      19683               2199 
    795000   1957.2713      186000.16     -192734.82      12823.69      -179911.13      1.4689524      19683               2199 
    795500   1970.5421      195394.62     -192545.02      12910.638     -179634.38      1.4689524      19683               2199 
    796000   2053.5757      185271.34     -192936.44      13454.659     -179481.78      1.4689524      19683               2199 
    796500   2012.152       195508.41     -192644.82      13183.259     -179461.56      1.4689524      19683               2199 
    797000   2015.3972      189895.12     -192770.08      13204.52      -179565.56      1.4689524      19683               2199 
    797500   1966.9178      198535.68     -192609.57      12886.892     -179722.67      1.4689524      19683               2199 
    798000   1964.2212      181827.49     -192742.65      12869.224     -179873.43      1.4689524      19683               2199 
    798500   2005.9829      187500.42     -193117.61      13142.84      -179974.77      1.4689524      19683               2199 
    799000   1954.8904      182361.78     -192870.07      12808.091     -180061.97      1.4689524      19683               2199 
    799500   1980.2372      177067.41     -193189.72      12974.159     -180215.56      1.4689524      19683               2199 
    800000   1948.6532      179024.62     -193185.74      12767.226     -180418.52      1.4689524      19683               2199 
    800500   1966.1203      181711.58     -193446.69      12881.667     -180565.02      1.4689524      19683               2199 
    801000   1969.2506      179241.53     -193465.99      12902.177     -180563.82      1.4689524      19683               2199 
    801500   1960.3552      182608.52     -193205.54      12843.895     -180361.65      1.4689524      19683               2199 
    802000   1948.8561      175849.05     -192805.77      12768.555     -180037.21      1.4689524      19683               2199 
    802500   1990.5318      184209.32     -192842.35      13041.607     -179800.74      1.4689524      19683               2199 
    803000   2018.9529      195093.51     -192914.64      13227.817     -179686.83      1.4689524      19683               2199 
    803500   1997.8445      187358.22     -192788.69      13089.519     -179699.17      1.4689524      19683               2199 
    804000   2011.975       185291.29     -192924.42      13182.099     -179742.32      1.4689524      19683               2199 
    804500   2013.2276      187998.36     -193016.55      13190.306     -179826.25      1.4689524      19683               2199 
    805000   2036.0269      183201.5      -193350.08      13339.683     -180010.4       1.4689524      19683               2199 
    805500   1978.4488      187819.35     -193217.46      12962.441     -180255.02      1.4689524      19683               2199 
    806000   1964.9309      183286.08     -193338.23      12873.874     -180464.36      1.4689524      19683               2199 
    806500   1979.7473      183211.25     -193527.05      12970.949     -180556.1       1.4689524      19683               2199 
    807000   1973.9502      186869.97     -193390.26      12932.967     -180457.29      1.4689524      19683               2199 
    807500   2008.8625      194480.88     -193398.2       13161.706     -180236.49      1.4689524      19683               2199 
    808000   2035.3245      193583.82     -193175.89      13335.081     -179840.81      1.4689524      19683               2199 
    808500   2050.9924      179890.04     -193009.32      13437.734     -179571.59      1.4689524      19683               2199 
    809000   2049.9662      190581.54     -192994.42      13431.01      -179563.41      1.4689524      19683               2199 
    809500   2097.15        187693.24     -193375.62      13740.15      -179635.47      1.4689524      19683               2199 
    810000   1993.0023      196059.16     -192838.33      13057.794     -179780.53      1.4689524      19683               2199 
    810500   1988.6738      190226.77     -192977.27      13029.433     -179947.84      1.4689524      19683               2199 
    811000   1981.6977      186328.96     -193062.82      12983.727     -180079.09      1.4689524      19683               2199 
    811500   1995.7472      189555.15     -193206.42      13075.777     -180130.64      1.4689524      19683               2199 
    812000   1995.8462      183333.84     -193213.1       13076.426     -180136.67      1.4689524      19683               2199 
    812500   1967.6959      194038.4      -192999.44      12891.99      -180107.45      1.4689524      19683               2199 
    813000   1985.5985      188792.02     -193002.45      13009.285     -179993.16      1.4689524      19683               2199 
    813500   2015.0874      181231.44     -192997.69      13202.491     -179795.2       1.4689524      19683               2199 
    814000   1988.2775      192204.23     -192616.42      13026.837     -179589.58      1.4689524      19683               2199 
    814500   2050.2848      200030.69     -192882.2       13433.098     -179449.1       1.4689524      19683               2199 
    815000   2032.3873      185851.07     -192735.01      13315.837     -179419.18      1.4689524      19683               2199 
    815500   2006.7806      179403.47     -192687.69      13148.067     -179539.63      1.4689524      19683               2199 
    816000   1993.7096      192132.8      -192897.57      13062.427     -179835.14      1.4689524      19683               2199 
    816500   1980.7878      185684.44     -193100.8       12977.766     -180123.04      1.4689524      19683               2199 
    817000   2001.0469      181961.55     -193351.89      13110.5       -180241.39      1.4689524      19683               2199 
    817500   1970.1217      187156.13     -193141.51      12907.884     -180233.63      1.4689524      19683               2199 
    818000   2009.5896      191231.78     -193312.71      13166.47      -180146.24      1.4689524      19683               2199 
    818500   2042.1025      176820.46     -193388.77      13379.489     -180009.28      1.4689524      19683               2199 
    819000   2004.0431      189847.98     -192984.18      13130.13      -179854.05      1.4689524      19683               2199 
    819500   2023.3252      189911.65     -192981.96      13256.464     -179725.5       1.4689524      19683               2199 
    820000   2007.7736      201946.44     -192819.08      13154.572     -179664.5       1.4689524      19683               2199 
    820500   1999.9985      184666.35     -192768.82      13103.631     -179665.19      1.4689524      19683               2199 
    821000   2045.6777      190399.5      -193197.04      13402.913     -179794.12      1.4689524      19683               2199 
    821500   2038.3645      186568.05     -193349.53      13354.998     -179994.54      1.4689524      19683               2199 
    822000   1941.4893      189322.05     -192945.77      12720.289     -180225.48      1.4689524      19683               2199 
    822500   1964.6654      183945        -193271.57      12872.135     -180399.44      1.4689524      19683               2199 
    823000   1947.0376      179382.27     -193196.57      12756.641     -180439.93      1.4689524      19683               2199 
    823500   1963.3166      185529.96     -193257.88      12863.298     -180394.59      1.4689524      19683               2199 
    824000   1951.9923      189205.24     -192989.41      12789.103     -180200.3       1.4689524      19683               2199 
    824500   2018.949       189416.98     -193124.47      13227.791     -179896.67      1.4689524      19683               2199 
    825000   2005.0651      185790.27     -192802.56      13136.827     -179665.73      1.4689524      19683               2199 
    825500   1995.5664      188152.06     -192671.36      13074.593     -179596.76      1.4689524      19683               2199 
    826000   1974.3632      192086.25     -192516.71      12935.673     -179581.03      1.4689524      19683               2199 
    826500   2008.2163      197626.02     -192766.97      13157.473     -179609.49      1.4689524      19683               2199 
    827000   2054.7794      188504.78     -193112.92      13462.546     -179650.37      1.4689524      19683               2199 
    827500   2003.3834      193865.57     -192924.85      13125.809     -179799.04      1.4689524      19683               2199 
    828000   1962.6225      191329.61     -192860.17      12858.75      -180001.42      1.4689524      19683               2199 
    828500   1987.0076      177707.68     -193230.97      13018.517     -180212.45      1.4689524      19683               2199 
    829000   1936.3366      184593.94     -193022.27      12686.53      -180335.74      1.4689524      19683               2199 
    829500   1968.7498      192770.23     -193327.94      12898.895     -180429.04      1.4689524      19683               2199 
    830000   1949.8147      176278.63     -193229.44      12774.836     -180454.61      1.4689524      19683               2199 
    830500   1984.5724      186031.08     -193381.64      13002.562     -180379.08      1.4689524      19683               2199 
    831000   1996.8548      186031.94     -193226.61      13083.034     -180143.58      1.4689524      19683               2199 
    831500   2000.3881      189061.18     -192974.35      13106.184     -179868.16      1.4689524      19683               2199 
    832000   2010.5049      199900.24     -192913.59      13172.467     -179741.12      1.4689524      19683               2199 
    832500   1969.0736      185018.31     -192586.07      12901.017     -179685.05      1.4689524      19683               2199 
    833000   2016.4963      183348.8      -192838.13      13211.722     -179626.41      1.4689524      19683               2199 
    833500   2020.5329      192480.06     -192817.6       13238.169     -179579.43      1.4689524      19683               2199 
    834000   2026.5863      191428.28     -192873.81      13277.829     -179595.98      1.4689524      19683               2199 
    834500   2009.3282      190489.75     -192938.14      13164.758     -179773.38      1.4689524      19683               2199 
    835000   1998.9705      179707.55     -193112.23      13096.896     -180015.33      1.4689524      19683               2199 
    835500   1959.7813      186970.72     -192996.55      12840.135     -180156.42      1.4689524      19683               2199 
    836000   1988.8447      179941.46     -193231.2       13030.554     -180200.64      1.4689524      19683               2199 
    836500   1986.4705      185506.73     -193180.23      13014.998     -180165.23      1.4689524      19683               2199 
    837000   2009.3862      186724.58     -193225.58      13165.138     -180060.44      1.4689524      19683               2199 
    837500   1962.9607      189926.49     -192685.44      12860.966     -179824.47      1.4689524      19683               2199 
    838000   2059.1862      189996.71     -192945.11      13491.419     -179453.69      1.4689524      19683               2199 
    838500   2049.2566      188810.27     -192716.86      13426.362     -179290.49      1.4689524      19683               2199 
    839000   2065.3277      189897.1      -192811.94      13531.656     -179280.28      1.4689524      19683               2199 
    839500   2039.0911      186982.36     -192836         13359.759     -179476.24      1.4689524      19683               2199 
    840000   2016.9606      193031.07     -192957.46      13214.764     -179742.7       1.4689524      19683               2199 
    840500   1985.1445      189944.05     -192890.63      13006.31      -179884.32      1.4689524      19683               2199 
    841000   1966.0598      193434.28     -192812.88      12881.271     -179931.61      1.4689524      19683               2199 
    841500   1948.0679      193584.67     -192695.53      12763.391     -179932.14      1.4689524      19683               2199 
    842000   1991.3058      190456.07     -192915.13      13046.678     -179868.45      1.4689524      19683               2199 
    842500   1951.0888      193348.84     -192620.72      12783.183     -179837.54      1.4689524      19683               2199 
    843000   2003.3348      191762.08     -192938.85      13125.49      -179813.36      1.4689524      19683               2199 
    843500   2015.7104      197227.44     -193034.43      13206.573     -179827.86      1.4689524      19683               2199 
    844000   1988.9754      181187.2      -192998.84      13031.41      -179967.43      1.4689524      19683               2199 
    844500   2003.5821      184171.1      -193299.58      13127.11      -180172.47      1.4689524      19683               2199 
    845000   1953.9009      185598.55     -193170.88      12801.608     -180369.27      1.4689524      19683               2199 
    845500   1950.6242      188624.04     -193242.37      12780.14      -180462.23      1.4689524      19683               2199 
    846000   1980.1659      177825.57     -193385.84      12973.692     -180412.15      1.4689524      19683               2199 
    846500   2001.1076      184167.16     -193302.97      13110.898     -180192.08      1.4689524      19683               2199 
    847000   2011.7714      177557.8      -193120.97      13180.765     -179940.21      1.4689524      19683               2199 
    847500   2012.8905      188580.59     -192880.23      13188.097     -179692.14      1.4689524      19683               2199 
    848000   2021.4011      186877.78     -192865.48      13243.857     -179621.62      1.4689524      19683               2199 
    848500   2027.9654      185298.69     -192917.31      13286.865     -179630.45      1.4689524      19683               2199 
    849000   2020.9194      194539.41     -192957.03      13240.701     -179716.33      1.4689524      19683               2199 
    849500   2010.2059      194636.61     -193021.12      13170.508     -179850.61      1.4689524      19683               2199 
    850000   2011.0838      199545.01     -193140.84      13176.26      -179964.58      1.4689524      19683               2199 
    850500   1987.1087      192548.65     -193083.03      13019.179     -180063.85      1.4689524      19683               2199 
    851000   2001.8733      187418        -193252.91      13115.915     -180136.99      1.4689524      19683               2199 
    851500   1968.1869      180468.71     -193078.37      12895.207     -180183.16      1.4689524      19683               2199 
    852000   2027.2176      187691.97     -193479.54      13281.965     -180197.57      1.4689524      19683               2199 
    852500   2007.7058      186701.37     -193315.31      13154.128     -180161.18      1.4689524      19683               2199 
    853000   2026.287       189161.49     -193300.23      13275.869     -180024.36      1.4689524      19683               2199 
    853500   1973.2209      185082.99     -192715.64      12928.189     -179787.45      1.4689524      19683               2199 
    854000   2011.1155      189659.11     -192750.16      13176.468     -179573.7       1.4689524      19683               2199 
    854500   2054.655       179888.89     -192914.44      13461.731     -179452.71      1.4689524      19683               2199 
    855000   2032.7056      194249.69     -192768.4       13317.922     -179450.48      1.4689524      19683               2199 
    855500   2062.797       184091.95     -193071.8       13515.076     -179556.73      1.4689524      19683               2199 
    856000   2014.1227      200315.17     -193011.24      13196.171     -179815.07      1.4689524      19683               2199 
    856500   1983.6991      185740.15     -193017.01      12996.841     -180020.16      1.4689524      19683               2199 
    857000   1970.779       190175.45     -193042.96      12912.19      -180130.77      1.4689524      19683               2199 
    857500   1980.9952      186347.44     -193171.28      12979.125     -180192.16      1.4689524      19683               2199 
    858000   1982.3024      187656.88     -193189.2       12987.69      -180201.51      1.4689524      19683               2199 
    858500   1984.0171      175826.28     -193168.11      12998.924     -180169.19      1.4689524      19683               2199 
    859000   2009.9953      186282.74     -193246.14      13169.128     -180077.02      1.4689524      19683               2199 
    859500   2001.7294      182497.31     -193047.03      13114.971     -179932.06      1.4689524      19683               2199 
    860000   1998.3227      194557.36     -192727.36      13092.652     -179634.71      1.4689524      19683               2199 
    860500   2051.1731      193698.76     -192715.1       13438.918     -179276.18      1.4689524      19683               2199 
    861000   2065.7284      192782.23     -192676.99      13534.282     -179142.71      1.4689524      19683               2199 
    861500   2013.4117      188776.23     -192432.72      13191.512     -179241.21      1.4689524      19683               2199 
    862000   2039.63        187317.06     -192739.15      13363.289     -179375.86      1.4689524      19683               2199 
    862500   2028.2446      195803.19     -192821.18      13288.694     -179532.49      1.4689524      19683               2199 
    863000   2032.8409      192285.85     -193034.2       13318.809     -179715.39      1.4689524      19683               2199 
    863500   1978.8888      193922.19     -192876.89      12965.324     -179911.56      1.4689524      19683               2199 
    864000   1985.3747      184550.25     -193037.6       13007.819     -180029.78      1.4689524      19683               2199 
    864500   1957.6391      192122.49     -192922.09      12826.1       -180095.99      1.4689524      19683               2199 
    865000   1964.8136      189462.74     -192954.75      12873.106     -180081.64      1.4689524      19683               2199 
    865500   2008.0164      186870.31     -193135.59      13156.163     -179979.43      1.4689524      19683               2199 
    866000   2004.4558      189767.57     -192875.43      13132.835     -179742.6       1.4689524      19683               2199 
    866500   2074.5051      192257.96     -193008.15      13591.785     -179416.37      1.4689524      19683               2199 
    867000   2089.1457      180534.73     -192993.38      13687.708     -179305.67      1.4689524      19683               2199 
    867500   2056.4697      176252.92     -192839.74      13473.62      -179366.12      1.4689524      19683               2199 
    868000   2003.4798      195340.77     -192619.53      13126.44      -179493.09      1.4689524      19683               2199 
    868500   2029.5453      180506.8      -192907.59      13297.217     -179610.37      1.4689524      19683               2199 
    869000   2001.8587      196001.7      -192824.53      13115.819     -179708.71      1.4689524      19683               2199 
    869500   2014.4982      190533.97     -192967.51      13198.631     -179768.88      1.4689524      19683               2199 
    870000   2025.0544      187684.15     -193111.17      13267.793     -179843.38      1.4689524      19683               2199 
    870500   1966.204       189302.8      -192752.63      12882.216     -179870.41      1.4689524      19683               2199 
    871000   1990.8002      192878.88     -192936.76      13043.366     -179893.4       1.4689524      19683               2199 
    871500   2023.9918      186720.88     -193159.63      13260.831     -179898.8       1.4689524      19683               2199 
    872000   1983.3699      194628.99     -192914.3       12994.684     -179919.62      1.4689524      19683               2199 
    872500   1962.8639      183489.55     -192751.35      12860.332     -179891.01      1.4689524      19683               2199 
    873000   1971.3676      187060.97     -192676.97      12916.046     -179760.92      1.4689524      19683               2199 
    873500   1994.7956      194249.64     -192659.92      13069.543     -179590.38      1.4689524      19683               2199 
    874000   2043.8288      180565.76     -192904.58      13390.799     -179513.78      1.4689524      19683               2199 
    874500   2052.7167      200815.3      -192935.7       13449.031     -179486.67      1.4689524      19683               2199 
    875000   2001.7033      188631.66     -192662.68      13114.801     -179547.88      1.4689524      19683               2199 
    875500   1986.9973      198265.57     -192711.31      13018.45      -179692.86      1.4689524      19683               2199 
    876000   2015.1921      183449.72     -193137.93      13203.177     -179934.76      1.4689524      19683               2199 
    876500   1941.726       197859.86     -192852.03      12721.84      -180130.19      1.4689524      19683               2199 
    877000   1985.8511      177486.16     -193231.45      13010.94      -180220.51      1.4689524      19683               2199 
    877500   1985.4445      184788.24     -193193.93      13008.276     -180185.66      1.4689524      19683               2199 
    878000   2002.5558      187039.22     -193192.61      13120.386     -180072.22      1.4689524      19683               2199 
    878500   2048.5386      193369.93     -193172.56      13421.657     -179750.9       1.4689524      19683               2199 
    879000   2085.2175      186511.07     -193034.25      13661.971     -179372.28      1.4689524      19683               2199 
    879500   2059.6653      194606.97     -192786.48      13494.557     -179291.92      1.4689524      19683               2199 
    880000   2014.1999      198938.05     -192546.45      13196.676     -179349.77      1.4689524      19683               2199 
    880500   2041.9182      183065.25     -192837.06      13378.282     -179458.78      1.4689524      19683               2199 
    881000   2019.2569      192405.9      -192850.49      13229.809     -179620.68      1.4689524      19683               2199 
    881500   1998.0971      194554.27     -192866.61      13091.173     -179775.43      1.4689524      19683               2199 
    882000   1999.4742      192306.97     -192978.38      13100.196     -179878.19      1.4689524      19683               2199 
    882500   2046.0188      174824.16     -193329.41      13405.148     -179924.26      1.4689524      19683               2199 
    883000   1998.179       189838.1      -193049.22      13091.71      -179957.51      1.4689524      19683               2199 
    883500   1976.8274      182870.94     -192934.45      12951.818     -179982.63      1.4689524      19683               2199 
    884000   2017.6649      187402.73     -193205.2       13219.378     -179985.83      1.4689524      19683               2199 
    884500   2001.119       187982.48     -193035.44      13110.972     -179924.47      1.4689524      19683               2199 
    885000   1981.3141      194352.32     -192673.73      12981.214     -179692.52      1.4689524      19683               2199 
    885500   2036.0651      197274.93     -192785.3       13339.933     -179445.37      1.4689524      19683               2199 
    886000   2059.5924      204541.7      -192789.69      13494.08      -179295.61      1.4689524      19683               2199 
    886500   2078.0382      183612.76     -192897.97      13614.933     -179283.04      1.4689524      19683               2199 
    887000   2031.181       189498.53     -192775.73      13307.933     -179467.79      1.4689524      19683               2199 
    887500   2002.7202      195563.78     -192877.38      13121.463     -179755.92      1.4689524      19683               2199 
    888000   1986.0603      181660.61     -192990.1       13012.311     -179977.79      1.4689524      19683               2199 
    888500   2020.478       181774.96     -193272.65      13237.809     -180034.85      1.4689524      19683               2199 
    889000   2028.6525      184980.8      -193372.34      13291.367     -180080.97      1.4689524      19683               2199 
    889500   2012.3201      189262.21     -193263.5       13184.36      -180079.14      1.4689524      19683               2199 
    890000   1991.3457      190437.62     -193087.06      13046.939     -180040.12      1.4689524      19683               2199 
    890500   2017.3623      186275.96     -193180.25      13217.395     -179962.86      1.4689524      19683               2199 
    891000   2016.3873      183881.94     -193022         13211.008     -179810.99      1.4689524      19683               2199 
    891500   2044.0893      198753.22     -192967.01      13392.506     -179574.51      1.4689524      19683               2199 
    892000   2028.853       199741.71     -192662.43      13292.681     -179369.75      1.4689524      19683               2199 
    892500   2076.8531      190486.86     -192902.13      13607.169     -179294.96      1.4689524      19683               2199 
    893000   2020.4423      188440.97     -192614.09      13237.575     -179376.51      1.4689524      19683               2199 
    893500   2018.446       193247.25     -192824.81      13224.496     -179600.31      1.4689524      19683               2199 
    894000   2037.5149      187952.36     -193217.11      13349.432     -179867.68      1.4689524      19683               2199 
    894500   1994.8968      189970.58     -193146.84      13070.205     -180076.63      1.4689524      19683               2199 
    895000   1976.0733      188591.93     -193095.93      12946.878     -180149.05      1.4689524      19683               2199 
    895500   1983.9962      197202.38     -193151.22      12998.787     -180152.43      1.4689524      19683               2199 
    896000   1958.6565      195324.72     -192955.48      12832.766     -180122.71      1.4689524      19683               2199 
    896500   1966.5282      197585.15     -192963.07      12884.34      -180078.73      1.4689524      19683               2199 
    897000   2020.8969      184777.5      -193212.89      13240.554     -179972.34      1.4689524      19683               2199 
    897500   2007.7495      185264.03     -192929.51      13154.414     -179775.09      1.4689524      19683               2199 
    898000   2039.002       191633.22     -192801.84      13359.175     -179442.66      1.4689524      19683               2199 
    898500   2021.9356      193001.76     -192418.81      13247.359     -179171.45      1.4689524      19683               2199 
    899000   2060.7682      185735.41     -192625.22      13501.784     -179123.44      1.4689524      19683               2199 
    899500   2048.5834      190890.11     -192669.85      13421.95      -179247.9       1.4689524      19683               2199 
    900000   2079.2509      190286.92     -193050.05      13622.879     -179427.17      1.4689524      19683               2199 
    900500   2031.8074      203416.76     -192927.64      13312.038     -179615.61      1.4689524      19683               2199 
    901000   2011.2071      194292.16     -192931.15      13177.068     -179754.08      1.4689524      19683               2199 
    901500   2005.4377      195231.74     -192997.78      13139.268     -179858.51      1.4689524      19683               2199 
    902000   2027.3639      191791.11     -193246.3       13282.924     -179963.38      1.4689524      19683               2199 
    902500   1990.8237      193677.06     -193143.44      13043.52      -180099.92      1.4689524      19683               2199 
    903000   1998.2585      188299.47     -193328.95      13092.231     -180236.72      1.4689524      19683               2199 
    903500   2021.8733      184321.19     -193580.17      13246.951     -180333.22      1.4689524      19683               2199 
    904000   2000.7608      187096.4      -193557.98      13108.625     -180449.36      1.4689524      19683               2199 
    904500   2002.5547      189403.66     -193661.99      13120.379     -180541.61      1.4689524      19683               2199 
    905000   1968.4964      184153.11     -193579.47      12897.235     -180682.23      1.4689524      19683               2199 
    905500   1948.4817      174509.69     -193579.29      12766.102     -180813.19      1.4689524      19683               2199 
    906000   1939.0322      198565.41     -193450.42      12704.191     -180746.23      1.4689524      19683               2199 
    906500   1937.4793      205054.67     -193184.28      12694.017     -180490.26      1.4689524      19683               2199 
    907000   2026.5937      179098.31     -193444.34      13277.878     -180166.46      1.4689524      19683               2199 
    907500   2040.344       187034.91     -193337.64      13367.967     -179969.68      1.4689524      19683               2199 
    908000   2032.8639      191596.32     -193189.82      13318.959     -179870.86      1.4689524      19683               2199 
    908500   2044.3475      190636.69     -193271.71      13394.198     -179877.51      1.4689524      19683               2199 
    909000   1944.4674      195630.92     -192697.75      12739.801     -179957.94      1.4689524      19683               2199 
    909500   2026.0104      196512.62     -193327.86      13274.056     -180053.81      1.4689524      19683               2199 
    910000   2009.4715      190784.47     -193404.09      13165.697     -180238.39      1.4689524      19683               2199 
    910500   1970.8489      191040.03     -193381.73      12912.648     -180469.09      1.4689524      19683               2199 
    911000   1974.6294      192399.59     -193512.08      12937.417     -180574.67      1.4689524      19683               2199 
    911500   1976.0741      185169.04     -193518.51      12946.883     -180571.63      1.4689524      19683               2199 
    912000   1975.1438      187900.09     -193342.24      12940.787     -180401.45      1.4689524      19683               2199 
    912500   2025.7197      187959.48     -193225.3       13272.152     -179953.15      1.4689524      19683               2199 
    913000   2071.2471      184834.28     -193234.41      13570.439     -179663.98      1.4689524      19683               2199 
    913500   2012.8009      200098.38     -192838.63      13187.51      -179651.12      1.4689524      19683               2199 
    914000   1980.9284      190384.52     -192706.28      12978.687     -179727.59      1.4689524      19683               2199 
    914500   2053.6276      186817.26     -193326.28      13455         -179871.28      1.4689524      19683               2199 
    915000   1982.2469      179383.82     -193035.39      12987.326     -180048.06      1.4689524      19683               2199 
    915500   2034.8098      176733.04     -193499.96      13331.709     -180168.25      1.4689524      19683               2199 
    916000   1973.9994      184986.51     -193205.58      12933.29      -180272.29      1.4689524      19683               2199 
    916500   2015.1325      188736.96     -193538.17      13202.787     -180335.38      1.4689524      19683               2199 
    917000   2009.5304      202989.38     -193596.89      13166.083     -180430.81      1.4689524      19683               2199 
    917500   2010.9088      188816.3      -193774.31      13175.113     -180599.2       1.4689524      19683               2199 
    918000   1962.2126      183493.34     -193735.26      12856.065     -180879.19      1.4689524      19683               2199 
    918500   1893.2489      177547.3      -193447.57      12404.227     -181043.34      1.4689524      19683               2199 
    919000   1933.7856      183211.69     -193656.5       12669.816     -180986.68      1.4689524      19683               2199 
    919500   1960.5296      183793.53     -193542.41      12845.038     -180697.37      1.4689524      19683               2199 
    920000   1978.3872      184895.05     -193357.32      12962.038     -180395.28      1.4689524      19683               2199 
    920500   1938.2635      178861.57     -192933.56      12699.154     -180234.4       1.4689524      19683               2199 
    921000   1992.2485      179837.99     -193154.14      13052.854     -180101.28      1.4689524      19683               2199 
    921500   2006.0702      195466.7      -193161.87      13143.412     -180018.45      1.4689524      19683               2199 
    922000   1987.5156      184167.6      -192973.43      13021.845     -179951.59      1.4689524      19683               2199 
    922500   1975.2507      203981.81     -192824.35      12941.488     -179882.86      1.4689524      19683               2199 
    923000   2036.8116      189565.5      -193124.7       13344.824     -179779.87      1.4689524      19683               2199 
    923500   2014.2972      191282.05     -192971.63      13197.313     -179774.31      1.4689524      19683               2199 
    924000   1978.8069      187170.42     -192828.87      12964.787     -179864.08      1.4689524      19683               2199 
    924500   1979.8687      197206.57     -193056.33      12971.744     -180084.59      1.4689524      19683               2199 
    925000   1972.515       182158.96     -193255.85      12923.564     -180332.29      1.4689524      19683               2199 
    925500   1965.0777      190659.42     -193340.81      12874.837     -180465.97      1.4689524      19683               2199 
    926000   1947.4115      191270.59     -193267.43      12759.091     -180508.34      1.4689524      19683               2199 
    926500   1967.4701      187198.08     -193350.61      12890.511     -180460.1       1.4689524      19683               2199 
    927000   2018.0468      186429.57     -193467.23      13221.881     -180245.35      1.4689524      19683               2199 
    927500   1989.1497      187152.2      -192927.86      13032.552     -179895.31      1.4689524      19683               2199 
    928000   2023.8021      192185.93     -192971.8       13259.588     -179712.22      1.4689524      19683               2199 
    928500   2056.703       187833.28     -193155.02      13475.149     -179679.87      1.4689524      19683               2199 
    929000   2023.1342      183685.53     -192967.07      13255.212     -179711.86      1.4689524      19683               2199 
    929500   2012.9924      187841.4      -193008.04      13188.765     -179819.28      1.4689524      19683               2199 
    930000   2012.0908      183169.92     -193154.74      13182.858     -179971.88      1.4689524      19683               2199 
    930063   2028.5106      182250.5      -193295.31      13290.437     -180004.87      1.4689524      19683               2199 
Loop time of 18845.7 on 48 procs for 400000 steps with 2199 atoms

Performance: 0.183 ns/day, 130.873 hours/ns, 21.225 timesteps/s, 46.674 katom-step/s
99.5% CPU use with 12 MPI tasks x 4 OpenMP threads

MPI task timing breakdown:
Section |  min time  |  avg time  |  max time  |%varavg| %total
---------------------------------------------------------------
Pair    | 15827      | 16034      | 16184      |  72.9 | 85.08
Neigh   | 135.62     | 136.56     | 138.43     |   6.1 |  0.72
Comm    | 157.5      | 308.63     | 514.2      | 525.5 |  1.64
Output  | 0.099316   | 0.11551    | 0.13935    |   3.1 |  0.00
Modify  | 2354.9     | 2357.8     | 2359.3     |   2.2 | 12.51
Other   |            | 8.769      |            |       |  0.05

Nlocal:         183.25 ave         188 max         178 min
Histogram: 2 1 0 1 2 0 0 1 2 3
Nghost:        5005.58 ave        5057 max        4955 min
Histogram: 1 1 2 1 1 1 1 3 0 1
Neighs:         133272 ave      137436 max      129021 min
Histogram: 3 1 0 1 1 0 1 1 3 1

Total # of neighbors = 1599263
Ave neighs/atom = 727.2683
Neighbor list builds = 4600
Dangerous builds = 0
System init for write_restart ...
--- Condensation Stage 3/4 ---
Setting up Verlet run ...
  Unit style    : real
  Current step  : 930063
  Time step     : 0.1
Per MPI rank memory allocation (min/avg/max) = 357.4 | 362.2 | 366.9 Mbytes
   Step          Temp          Press          PotEng         KinEng         TotEng        Density         Volume        Atoms   
    930063   2028.5106      182250.62     -193295.31      13290.437     -180004.87      1.4689524      19683               2199 
    930500   2002.0626      191847.84     -193270.09      13117.155     -180152.94      1.4689524      19683               2199 
    931000   1994.6009      194549.84     -193355.01      13068.267     -180286.74      1.4689524      19683               2199 
    931500   1984.2668      182815.31     -193363.51      13000.56      -180362.95      1.4689524      19683               2199 
    932000   1998.5352      185410.1      -193432.22      13094.044     -180338.17      1.4689524      19683               2199 
    932500   1943.345       180745.26     -192978.93      12732.448     -180246.48      1.4689524      19683               2199 
    933000   2000.06        189681.55     -193072.11      13104.034     -179968.07      1.4689524      19683               2199 
    933500   2077.0225      187468.36     -193061.29      13608.278     -179453.01      1.4689524      19683               2199 
    934000   2071.5644      191658.99     -192904.09      13572.518     -179331.58      1.4689524      19683               2199 
    934500   2058.6344      184378.07     -192917.92      13487.803     -179430.12      1.4689524      19683               2199 
    935000   1997.8856      201252.61     -192751.74      13089.788     -179661.95      1.4689524      19683               2199 
    935500   2026.9124      180703.06     -193164.79      13279.966     -179884.82      1.4689524      19683               2199 
    936000   2000.6326      196221.12     -193193.2       13107.786     -180085.42      1.4689524      19683               2199 
    936500   1969.9412      187180.53     -193116.52      12906.701     -180209.82      1.4689524      19683               2199 
    937000   1963.8799      170189.91     -193155.04      12866.989     -180288.05      1.4689524      19683               2199 
    937500   1968.3803      181749.88     -193231.9       12896.474     -180335.42      1.4689524      19683               2199 
    938000   1995.2197      181839.43     -193400.53      13072.322     -180328.21      1.4689524      19683               2199 
    938500   2000.9906      187857.96     -193352.97      13110.131     -180242.84      1.4689524      19683               2199 
    939000   2026.4594      193484.15     -193266.9       13276.998     -179989.9       1.4689524      19683               2199 
    939500   2073.9211      188022.98     -193247.43      13587.959     -179659.47      1.4689524      19683               2199 
    940000   2063.5093      197864.24     -192996.57      13519.742     -179476.83      1.4689524      19683               2199 
    940500   2024.0726      194016.34     -192698.25      13261.36      -179436.89      1.4689524      19683               2199 
    941000   2047.3848      190983.91     -192953.28      13414.098     -179539.18      1.4689524      19683               2199 
    941500   2049.1065      178359.62     -193188.04      13425.378     -179762.66      1.4689524      19683               2199 
    942000   1960.7485      187924.45     -192812.11      12846.472     -179965.63      1.4689524      19683               2199 
    942500   2019.457       185625.17     -193244.05      13231.12      -180012.93      1.4689524      19683               2199 
    943000   1992.6295      188610.25     -193097.07      13055.351     -180041.72      1.4689524      19683               2199 
    943500   2011.9075      182757.51     -193293.42      13181.657     -180111.76      1.4689524      19683               2199 
    944000   2035.8108      184969.03     -193547.09      13338.267     -180208.83      1.4689524      19683               2199 
    944500   2007.5623      184093.08     -193424.83      13153.188     -180271.64      1.4689524      19683               2199 
    945000   2010.6342      182287.78     -193488.16      13173.314     -180314.85      1.4689524      19683               2199 
    945500   2027.0697      176177.9      -193607.63      13280.997     -180326.64      1.4689524      19683               2199 
    946000   1940.9998      184083.9      -193007.9       12717.082     -180290.82      1.4689524      19683               2199 
    946500   2015.0951      184511.18     -193310.4       13202.541     -180107.86      1.4689524      19683               2199 
    947000   2010.4461      184478.04     -193048.16      13172.082     -179876.08      1.4689524      19683               2199 
    947500   1990.1746      190889.8      -192765.15      13039.267     -179725.89      1.4689524      19683               2199 
    948000   2042.2933      190211.24     -193047.55      13380.739     -179666.81      1.4689524      19683               2199 
    948500   2032.4956      187174.15     -193024.54      13316.546     -179707.99      1.4689524      19683               2199 
    949000   2029.2435      190659.89     -193268.62      13295.239     -179973.38      1.4689524      19683               2199 
    949500   2015.6538      193145.26     -193483.5       13206.202     -180277.3       1.4689524      19683               2199 
    950000   2002.9664      188450.16     -193533.4       13123.076     -180410.32      1.4689524      19683               2199 
    950500   1971.8326      193025.15     -193346.63      12919.093     -180427.54      1.4689524      19683               2199 
    951000   1948.549       193440.95     -193117.54      12766.543     -180351         1.4689524      19683               2199 
    951500   2082.9952      190844.41     -193856.14      13647.411     -180208.73      1.4689524      19683               2199 
    952000   1988.27        187771.46     -193122.7       13026.788     -180095.91      1.4689524      19683               2199 
    952500   2010.2712      193851.2      -193155.67      13170.936     -179984.74      1.4689524      19683               2199 
    953000   2009.7338      199225.54     -193052.47      13167.415     -179885.05      1.4689524      19683               2199 
    953500   2025.3581      192263.09     -193086.96      13269.782     -179817.18      1.4689524      19683               2199 
    954000   2034.1556      188963.69     -193107.54      13327.423     -179780.12      1.4689524      19683               2199 
    954500   2002.4312      189688        -192920.07      13119.569     -179800.5       1.4689524      19683               2199 
    955000   1995.2594      179817.55     -193001.52      13072.581     -179928.94      1.4689524      19683               2199 
    955500   1988.9768      192249.95     -193141.93      13031.419     -180110.51      1.4689524      19683               2199 
    956000   1981.0835      183421.08     -193257.15      12979.703     -180277.45      1.4689524      19683               2199 
    956500   1988.5085      196347.11     -193432.55      13028.351     -180404.2       1.4689524      19683               2199 
    957000   1956.6121      202643.73     -193262.06      12819.372     -180442.69      1.4689524      19683               2199 
    957500   2005.9764      188639.64     -193543.52      13142.798     -180400.72      1.4689524      19683               2199 
    958000   2003.9525      190023.96     -193415.24      13129.537     -180285.71      1.4689524      19683               2199 
    958500   1992.8438      202464.56     -193149.77      13056.755     -180093.02      1.4689524      19683               2199 
    959000   2051.6894      188076.66     -193271.14      13442.3       -179828.84      1.4689524      19683               2199 
    959500   2041.0301      192167.61     -193012.66      13372.463     -179640.2       1.4689524      19683               2199 
    960000   2060.7904      197303.34     -193101.56      13501.929     -179599.63      1.4689524      19683               2199 
    960500   2037.6234      190547.13     -193088.51      13350.143     -179738.36      1.4689524      19683               2199 
    961000   2046.674       195372.11     -193365.93      13409.441     -179956.49      1.4689524      19683               2199 
    961500   2004.5661      193996.13     -193301.31      13133.557     -180167.76      1.4689524      19683               2199 
    962000   2013.9403      195899.69     -193469.71      13194.975     -180274.74      1.4689524      19683               2199 
    962500   1995.3767      185782.67     -193377.95      13073.35      -180304.6       1.4689524      19683               2199 
    963000   2036.5406      184392.88     -193625.93      13343.049     -180282.88      1.4689524      19683               2199 
    963500   1996.3743      184457.98     -193319.07      13079.886     -180239.18      1.4689524      19683               2199 
    964000   1979.7727      187195.34     -193098.41      12971.115     -180127.3       1.4689524      19683               2199 
    964500   2047.7304      194978.88     -193397.8       13416.362     -179981.44      1.4689524      19683               2199 
    965000   2021.1973      196349.62     -193072.09      13242.522     -179829.57      1.4689524      19683               2199 
    965500   1979.5683      198028.06     -192709.09      12969.776     -179739.31      1.4689524      19683               2199 
    966000   2047.9716      187054.95     -193077.18      13417.942     -179659.23      1.4689524      19683               2199 
    966500   2045.5086      192543.78     -193145.52      13401.805     -179743.72      1.4689524      19683               2199 
    967000   2013.523       183415.8      -193225.09      13192.241     -180032.85      1.4689524      19683               2199 
    967500   1975.3696      190318.34     -193255.38      12942.267     -180313.11      1.4689524      19683               2199 
    968000   1997.7512      190383.85     -193504.67      13088.907     -180415.77      1.4689524      19683               2199 
    968500   1931.7566      186396.55     -193091.51      12656.522     -180434.99      1.4689524      19683               2199 
    969000   1995.4298      183261.92     -193390.12      13073.698     -180316.42      1.4689524      19683               2199 
    969500   2018.1959      184686.33     -193355.56      13222.857     -180132.71      1.4689524      19683               2199 
    970000   2027.7629      186021.25     -193214.33      13285.539     -179928.79      1.4689524      19683               2199 
    970500   2020.7049      202649.83     -193068.85      13239.296     -179829.56      1.4689524      19683               2199 
    971000   2019.0846      193344.38     -193042.01      13228.68      -179813.33      1.4689524      19683               2199 
    971500   2020.6804      193863.64     -193166.88      13239.135     -179927.75      1.4689524      19683               2199 
    972000   1971.6741      185882.31     -193249.93      12918.055     -180331.88      1.4689524      19683               2199 
    972500   2001.8333      189895.36     -193664.89      13115.653     -180549.24      1.4689524      19683               2199 
    973000   1942.0582      186928.63     -193268.88      12724.017     -180544.87      1.4689524      19683               2199 
    973500   1982.6974      189516.92     -193375.39      12990.277     -180385.11      1.4689524      19683               2199 
    974000   2040.3695      176059.48     -193532.3       13368.135     -180164.16      1.4689524      19683               2199 
    974500   1974.1195      203671.8      -192947.95      12934.077     -180013.87      1.4689524      19683               2199 
    975000   1979.0547      193389.49     -192880.33      12966.411     -179913.92      1.4689524      19683               2199 
    975500   2043.2511      179629.63     -193235.65      13387.014     -179848.64      1.4689524      19683               2199 
    976000   2013.6984      185775.61     -193000.35      13193.39      -179806.96      1.4689524      19683               2199 
    976500   2036.4798      185843.1      -193160.96      13342.65      -179818.31      1.4689524      19683               2199 
    977000   2053.5546      187951.56     -193423.39      13454.521     -179968.87      1.4689524      19683               2199 
    977500   2021.8282      187977.42     -193454.42      13246.656     -180207.76      1.4689524      19683               2199 
    978000   1977.5944      184883.68     -193358.46      12956.843     -180401.61      1.4689524      19683               2199 
    978500   1977.1312      184555.92     -193438.69      12953.809     -180484.88      1.4689524      19683               2199 
    979000   1974.7799      190265.13     -193436.01      12938.404     -180497.6       1.4689524      19683               2199 
    979500   2014.0946      191928.5      -193608.81      13195.986     -180412.82      1.4689524      19683               2199 
    980000   1980.4798      185712.9      -193168.73      12975.748     -180192.99      1.4689524      19683               2199 
    980500   2039.1985      198656.34     -193296.87      13360.462     -179936.41      1.4689524      19683               2199 
    981000   1997.0106      188807.18     -192785.48      13084.055     -179701.42      1.4689524      19683               2199 
    981500   2034.8316      193685.62     -192959.9       13331.851     -179628.04      1.4689524      19683               2199 
    982000   2044.0968      186262.36     -193122.48      13392.555     -179729.92      1.4689524      19683               2199 
    982500   1972.6642      191376.84     -192780.65      12924.542     -179856.11      1.4689524      19683               2199 
    983000   2003.9773      189642.14     -193033.48      13129.7       -179903.78      1.4689524      19683               2199 
    983500   2007.4128      193329.97     -193072.43      13152.208     -179920.22      1.4689524      19683               2199 
    984000   2024.1154      188109.44     -193243.71      13261.641     -179982.07      1.4689524      19683               2199 
    984500   2024.5188      182670.92     -193302.74      13264.284     -180038.45      1.4689524      19683               2199 
    985000   2018.2411      185208.11     -193364.54      13223.154     -180141.38      1.4689524      19683               2199 
    985500   1984.1602      199321.38     -193233.83      12999.861     -180233.97      1.4689524      19683               2199 
    986000   1995.9952      180808.4      -193403.81      13077.402     -180326.4       1.4689524      19683               2199 
    986500   1994.9657      197473.18     -193516.47      13070.657     -180445.82      1.4689524      19683               2199 
    987000   1960.2784      191124        -193543.34      12843.392     -180699.95      1.4689524      19683               2199 
    987500   1953.8096      183268.8      -193677.07      12801.01      -180876.06      1.4689524      19683               2199 
    988000   1915.4777      184839.97     -193401.53      12549.866     -180851.66      1.4689524      19683               2199 
    988500   1983.0636      187630.98     -193599.9       12992.677     -180607.22      1.4689524      19683               2199 
    989000   1973.2073      187202.45     -193258.96      12928.1       -180330.86      1.4689524      19683               2199 
    989500   2007.9799      205517.25     -193324.83      13155.924     -180168.9       1.4689524      19683               2199 
    990000   2015.9914      181986.77     -193279.37      13208.414     -180070.95      1.4689524      19683               2199 
    990500   2007.3029      184693.35     -193192.3       13151.488     -180040.82      1.4689524      19683               2199 
    991000   2013.1952      168977.11     -193239.14      13190.094     -180049.04      1.4689524      19683               2199 
    991500   2031.7687      188921.76     -193438.39      13311.784     -180126.61      1.4689524      19683               2199 
    992000   2021.7106      175134.51     -193521.92      13245.885     -180276.03      1.4689524      19683               2199 
    992500   1997.7625      179748.41     -193558.43      13088.981     -180469.45      1.4689524      19683               2199 
    993000   1975.5937      183948.14     -193708.77      12943.736     -180765.03      1.4689524      19683               2199 
    993500   1921.6061      184123.85     -193566.57      12590.018     -180976.55      1.4689524      19683               2199 
    994000   1922.538       178503.44     -193581.02      12596.124     -180984.9       1.4689524      19683               2199 
    994500   1913.2529      186440.12     -193326.9       12535.289     -180791.61      1.4689524      19683               2199 
    995000   1953.7256      191134.45     -193308.75      12800.459     -180508.29      1.4689524      19683               2199 
    995500   1930.9127      190604.31     -193002.49      12650.994     -180351.5       1.4689524      19683               2199 
    996000   1978.3194      192071.8      -193249.1       12961.593     -180287.51      1.4689524      19683               2199 
    996500   2028.4022      182615.25     -193478.12      13289.727     -180188.39      1.4689524      19683               2199 
    997000   1997.661       191670.17     -193207.14      13088.316     -180118.83      1.4689524      19683               2199 
    997500   1982.3458      187955.44     -193039.75      12987.974     -180051.78      1.4689524      19683               2199 
    998000   2031.2302      187230.71     -193344.95      13308.256     -180036.69      1.4689524      19683               2199 
    998500   2024.3441      197096.64     -193352.95      13263.139     -180089.81      1.4689524      19683               2199 
    999000   2020.8253      195327.97     -193465.54      13240.085     -180225.45      1.4689524      19683               2199 
    999500   2006.7142      192750.38     -193617.5       13147.631     -180469.87      1.4689524      19683               2199 
   1000000   1963.8357      184686.24     -193522.92      12866.699     -180656.22      1.4689524      19683               2199 
   1000500   1924.7383      176891.06     -193293.89      12610.54      -180683.35      1.4689524      19683               2199 
   1001000   2017.5156      179255.25     -193763.77      13218.4       -180545.37      1.4689524      19683               2199 
   1001500   1964.3819      183757.84     -193161.34      12870.278     -180291.07      1.4689524      19683               2199 
   1002000   2043.2686      185497.19     -193485.31      13387.129     -180098.18      1.4689524      19683               2199 
   1002500   2044.944       185399.86     -193433.37      13398.106     -180035.26      1.4689524      19683               2199 
   1003000   2001.4648      193610.21     -193162.62      13113.238     -180049.38      1.4689524      19683               2199 
   1003500   2028.3071      184747.21     -193383.99      13289.104     -180094.89      1.4689524      19683               2199 
   1004000   2022.8618      192147.36     -193463.12      13253.427     -180209.69      1.4689524      19683               2199 
   1004500   2039.0718      187206.32     -193652.72      13359.632     -180293.09      1.4689524      19683               2199 
   1005000   1998.353       189356        -193427.46      13092.85      -180334.61      1.4689524      19683               2199 
   1005500   2008.0898      190698.63     -193496.34      13156.644     -180339.7       1.4689524      19683               2199 
   1006000   1985.9304      182741.38     -193388.11      13011.459     -180376.65      1.4689524      19683               2199 
   1006500   1966.0542      184084.97     -193289.2       12881.235     -180407.97      1.4689524      19683               2199 
   1007000   2021.8246      193715.22     -193668.83      13246.632     -180422.2       1.4689524      19683               2199 
   1007500   1980.3134      196819.17     -193363.73      12974.658     -180389.07      1.4689524      19683               2199 
   1008000   2000.5381      193167.22     -193332.8       13107.166     -180225.63      1.4689524      19683               2199 
   1008500   1988.5764      195970.79     -193045.7       13028.796     -180016.9       1.4689524      19683               2199 
   1009000   2029.1926      189003.94     -193141         13294.906     -179846.1       1.4689524      19683               2199 
   1009500   2063.6998      193043.59     -193269.7       13520.991     -179748.71      1.4689524      19683               2199 
   1010000   1999.7079      202288.05     -192912.72      13101.727     -179811         1.4689524      19683               2199 
   1010500   2044.3696      191407.89     -193523.18      13394.343     -180128.84      1.4689524      19683               2199 
   1011000   1955.0994      197456.92     -193243.1       12809.46      -180433.64      1.4689524      19683               2199 
   1011500   1966.806       186411.16     -193423.81      12886.16      -180537.65      1.4689524      19683               2199 
   1012000   1981.7564      185302.11     -193504.98      12984.112     -180520.86      1.4689524      19683               2199 
   1012500   1991.2528      185267.12     -193465.73      13046.331     -180419.4       1.4689524      19683               2199 
   1013000   1976.3081      193816.99     -193211.75      12948.416     -180263.33      1.4689524      19683               2199 
   1013500   2005.7249      182058.51     -193252.61      13141.15      -180111.46      1.4689524      19683               2199 
   1014000   2038.153       198878.24     -193353.21      13353.612     -179999.6       1.4689524      19683               2199 
   1014500   2066.126       185153.32     -193466.42      13536.887     -179929.53      1.4689524      19683               2199 
   1015000   2070.5669      187129.77     -193460.69      13565.983     -179894.7       1.4689524      19683               2199 
   1015500   2011.3109      191205.77     -193085.7       13177.748     -179907.95      1.4689524      19683               2199 
   1016000   1977.781       188349.66     -192915.51      12958.066     -179957.45      1.4689524      19683               2199 
   1016500   2026.5066      192778.51     -193378.19      13277.307     -180100.88      1.4689524      19683               2199 
   1017000   1960.4726      199428        -193187.15      12844.664     -180342.49      1.4689524      19683               2199 
   1017500   1999.1198      187843.42     -193597.86      13097.874     -180499.99      1.4689524      19683               2199 
   1018000   1980.3571      197208.31     -193572.3       12974.944     -180597.35      1.4689524      19683               2199 
   1018500   1998.0776      179646.64     -193694.58      13091.046     -180603.53      1.4689524      19683               2199 
   1019000   1956.5886      183909.99     -193360.58      12819.217     -180541.37      1.4689524      19683               2199 
   1019500   2024.0562      189692.89     -193653.48      13261.253     -180392.23      1.4689524      19683               2199 
   1020000   2029.9667      179255.98     -193419.5       13299.977     -180119.53      1.4689524      19683               2199 
   1020500   2005.1065      194718.1      -193014.15      13137.098     -179877.05      1.4689524      19683               2199 
   1021000   2011.3764      189330.92     -192982.75      13178.177     -179804.57      1.4689524      19683               2199 
   1021500   2033.7078      188531.94     -193193.88      13324.489     -179869.39      1.4689524      19683               2199 
   1022000   1975.6876      190422.51     -193062.24      12944.35      -180117.89      1.4689524      19683               2199 
   1022500   1940.0386      182882.7      -193195.73      12710.784     -180484.95      1.4689524      19683               2199 
   1023000   1975.1268      191154.69     -193592.22      12940.677     -180651.54      1.4689524      19683               2199 
   1023500   2002.1485      187090.55     -193760.73      13117.718     -180643.02      1.4689524      19683               2199 
   1024000   1999.3333      185158.18     -193668.83      13099.273     -180569.56      1.4689524      19683               2199 
   1024500   1994.4612      188004.04     -193529.52      13067.352     -180462.16      1.4689524      19683               2199 
   1025000   2005.2021      184081        -193457.37      13137.725     -180319.65      1.4689524      19683               2199 
   1025500   2044.6767      189592.7      -193580.93      13396.355     -180184.57      1.4689524      19683               2199 
   1026000   2032.8197      190764.6      -193404.39      13318.67      -180085.72      1.4689524      19683               2199 
   1026500   2046.6685      194207.03     -193344.49      13409.404     -179935.08      1.4689524      19683               2199 
   1027000   2074.1002      197908.64     -193322.13      13589.132     -179733         1.4689524      19683               2199 
   1027500   2043.5462      191383.39     -192974.96      13388.948     -179586.02      1.4689524      19683               2199 
   1028000   2031.8925      186912.91     -192842.91      13312.595     -179530.31      1.4689524      19683               2199 
   1028500   2054.9188      190985.82     -193134.84      13463.459     -179671.38      1.4689524      19683               2199 
   1029000   2040.6815      184625.55     -193390.34      13370.179     -180020.17      1.4689524      19683               2199 
   1029500   1951.022       177988.65     -193069.78      12782.746     -180287.03      1.4689524      19683               2199 
   1030000   1949.3903      190441.73     -193139.06      12772.055     -180367.01      1.4689524      19683               2199 
   1030500   1970.6122      187262.67     -193219.11      12911.098     -180308.02      1.4689524      19683               2199 
   1031000   1982.9561      194695.51     -193205.23      12991.972     -180213.25      1.4689524      19683               2199 
   1031500   2013.0408      184280.13     -193313.41      13189.082     -180124.33      1.4689524      19683               2199 
   1032000   2031.4762      188757.88     -193311.58      13309.868     -180001.72      1.4689524      19683               2199 
   1032500   2021.221       178577.47     -193143.44      13242.677     -179900.77      1.4689524      19683               2199 
   1033000   2062.7653      192586.76     -193349.63      13514.868     -179834.77      1.4689524      19683               2199 
   1033500   2031.2417      185846.12     -193116.38      13308.331     -179808.05      1.4689524      19683               2199 
   1034000   2000.7242      196975.09     -193000.05      13108.386     -179891.66      1.4689524      19683               2199 
   1034500   2022.2776      187414.97     -193350.03      13249.6       -180100.43      1.4689524      19683               2199 
   1035000   1965.2688      193653.43     -193256.21      12876.088     -180380.12      1.4689524      19683               2199 
   1035500   2018.999       192706.52     -193708.18      13228.119     -180480.06      1.4689524      19683               2199 
   1036000   1998.7263      186953.05     -193610.55      13095.296     -180515.25      1.4689524      19683               2199 
   1036500   1992.4694      186055.44     -193524.49      13054.302     -180470.19      1.4689524      19683               2199 
   1037000   2020.0796      180481.59     -193609.7       13235.199     -180374.5       1.4689524      19683               2199 
   1037500   1994.3866      198090.59     -193300.69      13066.863     -180233.83      1.4689524      19683               2199 
   1038000   2051.5446      184794.9      -193429.35      13441.352     -179988         1.4689524      19683               2199 
   1038500   2080.0412      187116.65     -193313.78      13628.057     -179685.73      1.4689524      19683               2199 
   1039000   2011.4997      196930.26     -192674.83      13178.985     -179495.85      1.4689524      19683               2199 
   1039500   2052.6564      189295.89     -192966.51      13448.636     -179517.87      1.4689524      19683               2199 
   1040000   1972.5745      191823.81     -192620.96      12923.954     -179697         1.4689524      19683               2199 
   1040500   1996.8875      198270.02     -193016.5       13083.248     -179933.25      1.4689524      19683               2199 
   1041000   2007.3197      188695.97     -193266.15      13151.598     -180114.55      1.4689524      19683               2199 
   1041500   2058.256       182229.59     -193678.23      13485.324     -180192.9       1.4689524      19683               2199 
   1042000   1957.5071      181909.7      -193050.64      12825.235     -180225.41      1.4689524      19683               2199 
   1042500   1946.1011      184047.16     -192900.45      12750.505     -180149.95      1.4689524      19683               2199 
   1043000   1977.7587      188457.06     -192985.75      12957.92      -180027.83      1.4689524      19683               2199 
   1043500   2017.5274      186294.77     -193117.45      13218.477     -179898.98      1.4689524      19683               2199 
   1044000   2035.2158      197492.43     -193165.23      13334.369     -179830.86      1.4689524      19683               2199 
   1044500   2008.3569      183181.69     -192942.44      13158.394     -179784.05      1.4689524      19683               2199 
   1045000   2009.953       190514.61     -192971.14      13168.851     -179802.29      1.4689524      19683               2199 
   1045500   2023.8375      181975.05     -193146.92      13259.82      -179887.1       1.4689524      19683               2199 
   1046000   1995.1163      184481.83     -193162.05      13071.644     -180090.4       1.4689524      19683               2199 
   1046500   1956.8161      192386.72     -193146.44      12820.708     -180325.73      1.4689524      19683               2199 
   1047000   1965.5455      195707.86     -193339.13      12877.901     -180461.23      1.4689524      19683               2199 
   1047500   1965.4174      186709.39     -193314.74      12877.062     -180437.68      1.4689524      19683               2199 
   1048000   2020.9274      195915.92     -193507.6       13240.753     -180266.84      1.4689524      19683               2199 
   1048500   2027.4528      196678.4      -193324.49      13283.507     -180040.99      1.4689524      19683               2199 
   1049000   2069.6217      184806.44     -193399.33      13559.79      -179839.54      1.4689524      19683               2199 
   1049500   2053.7786      182143.82     -193270.12      13455.989     -179814.13      1.4689524      19683               2199 
   1050000   1993.5499      189854.16     -193002.36      13061.381     -179940.98      1.4689524      19683               2199 
   1050500   2041.6981      187649.45     -193453.72      13376.84      -180076.88      1.4689524      19683               2199 
   1051000   2032.4323      186583.45     -193519.51      13316.132     -180203.37      1.4689524      19683               2199 
   1051500   1967.9344      191380.61     -193133.8       12893.553     -180240.25      1.4689524      19683               2199 
   1052000   2014.8115      188288.66     -193411.15      13200.683     -180210.46      1.4689524      19683               2199 
   1052500   2022.7837      180053.6      -193472.43      13252.916     -180219.51      1.4689524      19683               2199 
   1053000   1959.2664      192453.23     -193052.2       12836.762     -180215.43      1.4689524      19683               2199 
   1053500   1995.6676      190623.31     -193228.87      13075.256     -180153.62      1.4689524      19683               2199 
   1054000   1991.2451      193477.31     -193081.45      13046.28      -180035.17      1.4689524      19683               2199 
   1054500   2047.9527      196817.97     -193355.06      13417.818     -179937.24      1.4689524      19683               2199 
   1055000   2037.1635      191391.67     -193234.31      13347.13      -179887.18      1.4689524      19683               2199 
   1055500   1989.5391      198477.91     -192946.39      13035.103     -179911.29      1.4689524      19683               2199 
   1056000   2010.6423      200024.27     -193197.62      13173.368     -180024.25      1.4689524      19683               2199 
   1056500   1990.2877      185714.91     -193306.63      13040.008     -180266.62      1.4689524      19683               2199 
   1057000   1988.2647      176347.6      -193496.88      13026.753     -180470.12      1.4689524      19683               2199 
   1057500   1911.5987      188779.73     -193084.44      12524.451     -180559.99      1.4689524      19683               2199 
   1058000   1982.6943      184632.5      -193549.6       12990.257     -180559.34      1.4689524      19683               2199 
   1058500   1973.2595      196017.72     -193359.07      12928.442     -180430.63      1.4689524      19683               2199 
   1059000   2028.1397      185493.69     -193455.66      13288.007     -180167.66      1.4689524      19683               2199 
   1059500   2016.3017      195662.89     -193049.67      13210.447     -179839.22      1.4689524      19683               2199 
   1060000   2019.6931      192774.77     -192947.92      13232.666     -179715.26      1.4689524      19683               2199 
   1060500   2050.8236      194561.74     -193178.06      13436.628     -179741.43      1.4689524      19683               2199 
   1061000   2018.4307      194799.73     -193079.98      13224.395     -179855.58      1.4689524      19683               2199 
   1061500   2030.6162      183936.12     -193282.47      13304.233     -179978.24      1.4689524      19683               2199 
   1062000   2035.5242      196855.24     -193440.09      13336.389     -180103.7       1.4689524      19683               2199 
   1062500   2057.3057      183714.83     -193682.51      13479.097     -180203.42      1.4689524      19683               2199 
   1063000   1975.1497      189857.04     -193237.07      12940.826     -180296.24      1.4689524      19683               2199 
   1063500   1966.4846      189341.73     -193254.26      12884.054     -180370.21      1.4689524      19683               2199 
   1064000   2002.0284      195908.73     -193537.97      13116.931     -180421.04      1.4689524      19683               2199 
   1064500   1975.4759      188452.72     -193461.78      12942.964     -180518.82      1.4689524      19683               2199 
   1065000   2006.6578      191333.82     -193806.65      13147.262     -180659.38      1.4689524      19683               2199 
   1065500   1976.2933      180981.67     -193821.09      12948.319     -180872.77      1.4689524      19683               2199 
   1066000   1965.1148      185883.21     -193865.88      12875.079     -180990.8       1.4689524      19683               2199 
   1066500   1936.1868      177882.43     -193627.68      12685.548     -180942.13      1.4689524      19683               2199 
   1067000   1952.1848      194580.99     -193498.95      12790.364     -180708.59      1.4689524      19683               2199 
   1067500   2003.0496      190200.66     -193508.47      13123.621     -180384.85      1.4689524      19683               2199 
   1068000   2087.0619      189722.27     -193848         13674.055     -180173.95      1.4689524      19683               2199 
   1068500   2065.4735      185523.1      -193630.39      13532.612     -180097.77      1.4689524      19683               2199 
   1069000   2040.4781      200051.26     -193469.93      13368.846     -180101.09      1.4689524      19683               2199 
   1069500   2044.986       190232.16     -193512.07      13398.381     -180113.69      1.4689524      19683               2199 
   1070000   2052.1106      181615.38     -193587.97      13445.06      -180142.91      1.4689524      19683               2199 
   1070500   2019.845       174640.25     -193547.54      13233.662     -180313.87      1.4689524      19683               2199 
   1071000   1966.9691      189022.92     -193519.13      12887.228     -180631.9       1.4689524      19683               2199 
   1071500   1938.2218      180787.67     -193542.56      12698.881     -180843.68      1.4689524      19683               2199 
   1072000   1939.3426      178201.47     -193526.47      12706.225     -180820.25      1.4689524      19683               2199 
   1072500   1962.036       176630.87     -193543.86      12854.907     -180688.96      1.4689524      19683               2199 
   1073000   1978.6163      187207.65     -193501.84      12963.539     -180538.3       1.4689524      19683               2199 
   1073500   1974.9959      184443.75     -193349.57      12939.818     -180409.75      1.4689524      19683               2199 
   1074000   1977.0845      186356.86     -193275.53      12953.503     -180322.03      1.4689524      19683               2199 
   1074500   1982.3395      182352.06     -193226.06      12987.933     -180238.13      1.4689524      19683               2199 
   1075000   1978.6538      189769.85     -193152.6       12963.784     -180188.82      1.4689524      19683               2199 
   1075500   2016.7249      191637.23     -193315.91      13213.22      -180102.69      1.4689524      19683               2199 
   1076000   2023.2957      184289.76     -193291.9       13256.27      -180035.63      1.4689524      19683               2199 
   1076500   2022.263       193629.41     -193260.42      13249.504     -180010.91      1.4689524      19683               2199 
   1077000   2003.0542      182028.08     -193139.15      13123.652     -180015.5       1.4689524      19683               2199 
   1077500   2018.8515      193754.97     -193357.49      13227.153     -180130.34      1.4689524      19683               2199 
   1078000   1994.9938      190941.15     -193348.33      13070.842     -180277.49      1.4689524      19683               2199 
   1078500   2009.5418      187137.09     -193536.85      13166.157     -180370.69      1.4689524      19683               2199 
   1079000   1964.7295      178574.07     -193252.41      12872.555     -180379.86      1.4689524      19683               2199 
   1079500   2024.4771      191861.23     -193542.43      13264.011     -180278.42      1.4689524      19683               2199 
   1080000   2024.7908      185543.89     -193370.3       13266.066     -180104.24      1.4689524      19683               2199 
   1080500   2020.2176      195546.36     -193129.9       13236.103     -179893.79      1.4689524      19683               2199 
   1081000   2014.9469      193001.95     -192936.3       13201.57      -179734.73      1.4689524      19683               2199 
   1081500   2055.26        194425.14     -193106.02      13465.695     -179640.32      1.4689524      19683               2199 
   1082000   2018.5003      195927.29     -192873.84      13224.852     -179648.98      1.4689524      19683               2199 
   1082500   1989.316       195664.63     -192861.8       13033.641     -179828.15      1.4689524      19683               2199 
   1083000   2018.0975      182644.17     -193410.99      13222.213     -180188.78      1.4689524      19683               2199 
   1083500   2004.5966      183861.7      -193563.45      13133.757     -180429.7       1.4689524      19683               2199 
   1084000   1959.001       182356.31     -193348.96      12835.023     -180513.94      1.4689524      19683               2199 
   1084500   1947.5608      186278.81     -193264.46      12760.068     -180504.39      1.4689524      19683               2199 
   1085000   2011.0114      199822.79     -193578.51      13175.785     -180402.72      1.4689524      19683               2199 
   1085500   2025.0116      191063.44     -193500.57      13267.513     -180233.06      1.4689524      19683               2199 
   1086000   2051.7852      189007.26     -193467.94      13442.929     -180025.01      1.4689524      19683               2199 
   1086500   2025.7287      180350.03     -193127.81      13272.211     -179855.6       1.4689524      19683               2199 
   1087000   2002.6916      190156.6      -192807.81      13121.276     -179686.53      1.4689524      19683               2199 
   1087500   2049.2582      194125.12     -192932.09      13426.372     -179505.72      1.4689524      19683               2199 
   1088000   2059.5799      196980.79     -192785.87      13493.998     -179291.87      1.4689524      19683               2199 
   1088500   2101.8194      196969.9      -192928.26      13770.744     -179157.51      1.4689524      19683               2199 
   1089000   2109.7008      190911.5      -193120.15      13822.381     -179297.77      1.4689524      19683               2199 
   1089500   2005.7692      186518.91     -192836.73      13141.44      -179695.29      1.4689524      19683               2199 
   1090000   2048.5348      180024.04     -193379.27      13421.633     -179957.63      1.4689524      19683               2199 
   1090500   2006.6137      184854.36     -193282.93      13146.973     -180135.96      1.4689524      19683               2199 
   1091000   2017.3173      189406.94     -193499.68      13217.1       -180282.58      1.4689524      19683               2199 
   1091500   1956.8884      191364.41     -193200.72      12821.181     -180379.54      1.4689524      19683               2199 
   1092000   1983.2308      179217.12     -193441.37      12993.772     -180447.59      1.4689524      19683               2199 
   1092500   1925.2195      188837.78     -193076.38      12613.693     -180462.68      1.4689524      19683               2199 
   1093000   1969.0428      195409.7      -193241.62      12900.815     -180340.8       1.4689524      19683               2199 
   1093500   2039.7666      181444.25     -193457.23      13364.185     -180093.05      1.4689524      19683               2199 
   1094000   2048.8197      189423.71     -193252.8       13423.499     -179829.3       1.4689524      19683               2199 
   1094500   2006.1964      189048.96     -192844.35      13144.238     -179700.11      1.4689524      19683               2199 
   1095000   2050.6838      190587.41     -193098.83      13435.712     -179663.12      1.4689524      19683               2199 
   1095500   1990.8695      191741.95     -192764.95      13043.82      -179721.13      1.4689524      19683               2199 
   1096000   1995.2147      189468.19     -192880.78      13072.288     -179808.49      1.4689524      19683               2199 
   1096500   2026.5448      190609.07     -193177.78      13277.558     -179900.22      1.4689524      19683               2199 
   1097000   2006.1963      187619.54     -193159.81      13144.238     -180015.58      1.4689524      19683               2199 
   1097500   1983.4071      200077.51     -193102.18      12994.927     -180107.25      1.4689524      19683               2199 
   1098000   1990.614       187810.03     -193150.24      13042.146     -180108.09      1.4689524      19683               2199 
   1098500   2013.4121      182659.05     -193263.45      13191.514     -180071.94      1.4689524      19683               2199 
   1099000   2033.614       176925.93     -193387.24      13323.874     -180063.37      1.4689524      19683               2199 
   1099500   2026.2609      181149.32     -193346.35      13275.698     -180070.65      1.4689524      19683               2199 
   1100000   1955.9894      190959.54     -192859.36      12815.291     -180044.07      1.4689524      19683               2199 
   1100500   2032.5569      186224.09     -193187.6       13316.948     -179870.66      1.4689524      19683               2199 
   1101000   2027.664       194207.02     -192992.65      13284.89      -179707.76      1.4689524      19683               2199 
   1101500   2026.4517      197377.85     -192856.58      13276.948     -179579.63      1.4689524      19683               2199 
   1102000   2013.3115      196630.62     -192773.12      13190.855     -179582.26      1.4689524      19683               2199 
   1102500   1984.0786      201882.94     -192795         12999.327     -179795.67      1.4689524      19683               2199 
   1103000   1980.0559      200297.71     -193071.65      12972.971     -180098.68      1.4689524      19683               2199 
   1103500   2004.0758      195904.88     -193408.95      13130.345     -180278.6       1.4689524      19683               2199 
   1104000   2000.8181      176679.42     -193466.1       13109.001     -180357.1       1.4689524      19683               2199 
   1104500   1942.2937      184319.56     -193098.91      12725.56      -180373.35      1.4689524      19683               2199 
   1105000   1985.0175      190621.17     -193344.88      13005.478     -180339.4       1.4689524      19683               2199 
   1105500   1984.7208      195103.53     -193270.27      13003.535     -180266.73      1.4689524      19683               2199 
   1106000   2005.5527      192110.06     -193274.18      13140.021     -180134.16      1.4689524      19683               2199 
   1106500   2000.0815      189867.6      -193006.25      13104.175     -179902.08      1.4689524      19683               2199 
   1107000   2045.4427      192283.61     -193028.95      13401.373     -179627.58      1.4689524      19683               2199 
   1107500   2074.5731      204573.14     -193019.63      13592.23      -179427.4       1.4689524      19683               2199 
   1108000   2066.3026      197657.21     -193009.7       13538.044     -179471.66      1.4689524      19683               2199 
   1108500   2018.9117      200357.6      -192978.58      13227.547     -179751.04      1.4689524      19683               2199 
   1109000   1992.4969      192246.15     -193124.58      13054.482     -180070.09      1.4689524      19683               2199 
   1109500   2026.866       182926.19     -193504.89      13279.662     -180225.23      1.4689524      19683               2199 
   1110000   1997.064       192153.25     -193382.41      13084.405     -180298.01      1.4689524      19683               2199 
   1110500   1976.8051      184033.54     -193271.52      12951.672     -180319.84      1.4689524      19683               2199 
   1111000   1953.7459      187600.2      -193065.05      12800.592     -180264.45      1.4689524      19683               2199 
   1111500   2008.929       188919.11     -193389.23      13162.142     -180227.09      1.4689524      19683               2199 
   1112000   2045.5385      191718.05     -193667.39      13402.001     -180265.39      1.4689524      19683               2199 
   1112500   2024.9947      185043.64     -193660.14      13267.402     -180392.74      1.4689524      19683               2199 
   1113000   1923.4266      184098.11     -193199.58      12601.946     -180597.64      1.4689524      19683               2199 
   1113500   1983.1549      190042.04     -193740         12993.275     -180746.73      1.4689524      19683               2199 
   1114000   1976.0502      193086.44     -193743.93      12946.726     -180797.2       1.4689524      19683               2199 
   1114500   1961.1465      193982.11     -193574.36      12849.08      -180725.28      1.4689524      19683               2199 
   1115000   1960.8539      187632.65     -193242.38      12847.163     -180395.21      1.4689524      19683               2199 
   1115500   2052.9805      186133.05     -193509.05      13450.759     -180058.29      1.4689524      19683               2199 
   1116000   2051.9657      195754.37     -193350         13444.111     -179905.89      1.4689524      19683               2199 
   1116500   2004.8152      204967.86     -193021.22      13135.189     -179886.03      1.4689524      19683               2199 
   1117000   2066.8392      193733.45     -193504.74      13541.559     -179963.18      1.4689524      19683               2199 
   1117500   1990.7812      193333.48     -193202.69      13043.241     -180159.45      1.4689524      19683               2199 
   1118000   2039.9421      192289.4      -193721.68      13365.334     -180356.34      1.4689524      19683               2199 
   1118500   1974.7505      198145.38     -193468.76      12938.211     -180530.55      1.4689524      19683               2199 
   1119000   1982.0748      188318.95     -193597.04      12986.198     -180610.84      1.4689524      19683               2199 
   1119500   1973.5722      187615.31     -193547.82      12930.491     -180617.33      1.4689524      19683               2199 
   1120000   1995.01        184762.67     -193626.56      13070.947     -180555.62      1.4689524      19683               2199 
   1120500   2003.3989      180366.93     -193587.35      13125.91      -180461.44      1.4689524      19683               2199 
   1121000   1990.2118      177062.45     -193395.72      13039.51      -180356.21      1.4689524      19683               2199 
   1121500   2014.4058      181008.54     -193456.92      13198.025     -180258.89      1.4689524      19683               2199 
   1122000   2038.0403      187119.06     -193563.85      13352.874     -180210.98      1.4689524      19683               2199 
   1122500   2038.2983      182711        -193563.89      13354.565     -180209.32      1.4689524      19683               2199 
   1123000   1976.6002      193340.66     -193234.93      12950.33      -180284.6       1.4689524      19683               2199 
   1123500   1994.1169      189319.11     -193464.25      13065.096     -180399.15      1.4689524      19683               2199 
   1124000   1947.846       189589.34     -193295.47      12761.937     -180533.53      1.4689524      19683               2199 
   1124500   1959.5107      190217.29     -193611         12838.362     -180772.64      1.4689524      19683               2199 
   1125000   1910.8626      192135.91     -193479.96      12519.629     -180960.33      1.4689524      19683               2199 
   1125500   1947.6557      189481.64     -193730.29      12760.691     -180969.6       1.4689524      19683               2199 
   1126000   1991.1031      185680.8      -193829.19      13045.35      -180783.84      1.4689524      19683               2199 
   1126500   2001.0334      191163.27     -193595.17      13110.412     -180484.75      1.4689524      19683               2199 
   1127000   1994.2094      191053.29     -193312.82      13065.702     -180247.12      1.4689524      19683               2199 
   1127500   1957.2032      196045.16     -192931.89      12823.244     -180108.64      1.4689524      19683               2199 
   1128000   2030.3972      179753.82     -193357.05      13302.798     -180054.25      1.4689524      19683               2199 
   1128500   2008.2412      182239.88     -193229.84      13157.636     -180072.2       1.4689524      19683               2199 
   1129000   1939.0698      181392.61     -192817.15      12704.437     -180112.71      1.4689524      19683               2199 
   1129500   1995.6196      190992.6      -193241.98      13074.942     -180167.03      1.4689524      19683               2199 
   1130000   1996.4421      196707.06     -193359.12      13080.33      -180278.79      1.4689524      19683               2199 
   1130500   1968.0405      185362.33     -193330.87      12894.248     -180436.62      1.4689524      19683               2199 
   1131000   1967.7339      174782.44     -193441.93      12892.239     -180549.69      1.4689524      19683               2199 
   1131500   1983.8997      181372.13     -193592.42      12998.155     -180594.27      1.4689524      19683               2199 
   1132000   1962.2954      188877.2      -193406.82      12856.607     -180550.21      1.4689524      19683               2199 
   1132500   2029.1925      187656.04     -193654.5       13294.905     -180359.59      1.4689524      19683               2199 
   1133000   2053.6488      194337.31     -193548.54      13455.138     -180093.4       1.4689524      19683               2199 
   1133500   2041.4511      186551.74     -193243.96      13375.221     -179868.74      1.4689524      19683               2199 
   1134000   2093.7162      182440.59     -193488.15      13717.653     -179770.5       1.4689524      19683               2199 
   1134500   1997.7053      188143.53     -192913.45      13088.607     -179824.84      1.4689524      19683               2199 
   1135000   2014.2304      191059        -193128.61      13196.876     -179931.73      1.4689524      19683               2199 
   1135500   2054.0725      193929.82     -193666.61      13457.914     -180208.7       1.4689524      19683               2199 
   1136000   1962.2761      182650.44     -193405.68      12856.481     -180549.2       1.4689524      19683               2199 
   1136500   1969.0637      181461.52     -193558.33      12900.952     -180657.38      1.4689524      19683               2199 
   1137000   2006.7922      190567.93     -193770.87      13148.143     -180622.73      1.4689524      19683               2199 
   1137500   1933.2124      200204.77     -193192.65      12666.061     -180526.58      1.4689524      19683               2199 
   1138000   1954.7039      194836.31     -193154.63      12806.869     -180347.76      1.4689524      19683               2199 
   1138500   2007.7687      185524.91     -193269.26      13154.54      -180114.72      1.4689524      19683               2199 
   1139000   1999.5131      180671.39     -193039.88      13100.451     -179939.43      1.4689524      19683               2199 
   1139500   1994.9444      193772.6      -192905.06      13070.517     -179834.54      1.4689524      19683               2199 
   1140000   2019.5473      203758.86     -192995.79      13231.711     -179764.08      1.4689524      19683               2199 
   1140500   2011.0592      189974.49     -192995.3       13176.099     -179819.21      1.4689524      19683               2199 
   1141000   1996.1191      190329.73     -193060.1       13078.214     -179981.89      1.4689524      19683               2199 
   1141500   2053.675       181864.13     -193604.66      13455.31      -180149.35      1.4689524      19683               2199 
   1142000   2006.195       186780.51     -193412.41      13144.229     -180268.18      1.4689524      19683               2199 
   1142500   2004.8504      183269.32     -193423.77      13135.42      -180288.35      1.4689524      19683               2199 
   1143000   1982.4459      189974.77     -193252.13      12988.629     -180263.5       1.4689524      19683               2199 
   1143500   1982.8246      190169.28     -193227.6       12991.111     -180236.49      1.4689524      19683               2199 
   1144000   1960.8053      187104.54     -193014.69      12846.844     -180167.85      1.4689524      19683               2199 
   1144500   2047.7731      183869.07     -193443.57      13416.642     -180026.93      1.4689524      19683               2199 
   1145000   2063.7704      193770.88     -193442.54      13521.453     -179921.08      1.4689524      19683               2199 
   1145500   2039.6003      193527.18     -193201.52      13363.095     -179838.42      1.4689524      19683               2199 
   1146000   2034.7863      188076.13     -193170.17      13331.554     -179838.61      1.4689524      19683               2199 
   1146500   2060.9705      192080.81     -193532.94      13503.109     -180029.83      1.4689524      19683               2199 
   1147000   2036.343       191481.75     -193681         13341.754     -180339.25      1.4689524      19683               2199 
   1147500   1952.1357      189753.53     -193338.05      12790.043     -180548.01      1.4689524      19683               2199 
   1148000   2019.1412      193946.68     -193787.58      13229.051     -180558.53      1.4689524      19683               2199 
   1148500   2029.8717      189037.71     -193822.66      13299.355     -180523.3       1.4689524      19683               2199 
   1149000   1955.9274      190212.44     -193244.69      12814.885     -180429.81      1.4689524      19683               2199 
   1149500   1981.0591      185793.78     -193183.18      12979.544     -180203.63      1.4689524      19683               2199 
   1150000   2053.3429      184077.14     -193382.13      13453.134     -179929         1.4689524      19683               2199 
   1150500   2038.2034      192555.22     -193172.23      13353.943     -179818.28      1.4689524      19683               2199 
   1151000   2009.4574      184946.57     -192982.44      13165.604     -179816.83      1.4689524      19683               2199 
   1151500   1973.8875      192821.4      -192793.37      12932.557     -179860.81      1.4689524      19683               2199 
   1152000   2057.6125      190952.84     -193428.66      13481.108     -179947.56      1.4689524      19683               2199 
   1152500   2009.6286      188430.42     -193190.6       13166.726     -180023.87      1.4689524      19683               2199 
   1153000   2043.4783      190886.34     -193470.57      13388.503     -180082.07      1.4689524      19683               2199 
   1153500   1992.4644      196495.46     -193206.74      13054.269     -180152.47      1.4689524      19683               2199 
   1154000   1999.6734      193229.98     -193325.89      13101.501     -180224.39      1.4689524      19683               2199 
   1154500   1983.1824      184529.08     -193300.55      12993.455     -180307.1       1.4689524      19683               2199 
   1155000   1970.1687      188486.12     -193262.8       12908.192     -180354.6       1.4689524      19683               2199 
   1155500   1988.3951      179284.03     -193413.86      13027.608     -180386.25      1.4689524      19683               2199 
   1156000   2039.0193      183817.05     -193758.75      13359.289     -180399.46      1.4689524      19683               2199 
   1156500   1975.008       183490.01     -193440.95      12939.898     -180501.05      1.4689524      19683               2199 
   1157000   2005.5672      184942.44     -193723.57      13140.116     -180583.46      1.4689524      19683               2199 
   1157500   1970.9703      184878.72     -193547.06      12913.443     -180633.62      1.4689524      19683               2199 
   1158000   1970.6619      192667.62     -193526.8       12911.423     -180615.38      1.4689524      19683               2199 
   1158500   2038.9883      187947.49     -193870.97      13359.085     -180511.88      1.4689524      19683               2199 
   1159000   2046.0464      185673        -193786.87      13405.329     -180381.54      1.4689524      19683               2199 
   1159500   1993.9113      190167.71     -193282.97      13063.749     -180219.22      1.4689524      19683               2199 
   1160000   2018.1639      187944.64     -193279.12      13222.648     -180056.47      1.4689524      19683               2199 
   1160500   2065.3091      180626.56     -193479.5       13531.534     -179947.97      1.4689524      19683               2199 
   1161000   2055.9739      179179.35     -193425.05      13470.372     -179954.68      1.4689524      19683               2199 
   1161500   1991.0169      188050.04     -193212.51      13044.785     -180167.72      1.4689524      19683               2199 
   1162000   2006.0197      183256.27     -193639.37      13143.081     -180496.29      1.4689524      19683               2199 
   1162500   1963.4478      188653.97     -193556.07      12864.158     -180691.91      1.4689524      19683               2199 
   1163000   1977.5986      189333.48     -193692.25      12956.871     -180735.38      1.4689524      19683               2199 
   1163500   1985.8633      185765.08     -193693.75      13011.02      -180682.73      1.4689524      19683               2199 
   1164000   1967.0096      192606.34     -193422.35      12887.494     -180534.86      1.4689524      19683               2199 
   1164500   2015.8167      194575.62     -193491.19      13207.269     -180283.92      1.4689524      19683               2199 
   1165000   2018.6862      199060.06     -193294.34      13226.07      -180068.27      1.4689524      19683               2199 
   1165500   2031.8937      183451.42     -193296.53      13312.603     -179983.93      1.4689524      19683               2199 
   1166000   2033.5046      185216.77     -193303.73      13323.157     -179980.58      1.4689524      19683               2199 
   1166500   1990.8854      194711.14     -193069.61      13043.924     -180025.68      1.4689524      19683               2199 
   1167000   2056.2227      179772.94     -193561.56      13472.002     -180089.56      1.4689524      19683               2199 
   1167500   2020.5275      188174.64     -193420.09      13238.133     -180181.96      1.4689524      19683               2199 
   1168000   2025.0704      185118.04     -193550.18      13267.898     -180282.28      1.4689524      19683               2199 
   1168500   1953.1276      194351.05     -193219.33      12796.542     -180422.79      1.4689524      19683               2199 
   1169000   1995.8439      188766.69     -193625.43      13076.411     -180549.02      1.4689524      19683               2199 
   1169500   1993.3895      190371.44     -193739.73      13060.33      -180679.4       1.4689524      19683               2199 
   1170000   1942.4375      190673.69     -193658.81      12726.502     -180932.31      1.4689524      19683               2199 
   1170500   1914.5457      173658.75     -193706.67      12543.76      -181162.91      1.4689524      19683               2199 
   1171000   1944.2082      181978.21     -193911.3       12738.103     -181173.2       1.4689524      19683               2199 
   1171500   1940.8391      190905.39     -193713.25      12716.03      -180997.22      1.4689524      19683               2199 
   1172000   1943.5394      178982.87     -193387.78      12733.721     -180654.06      1.4689524      19683               2199 
   1172500   1978.1695      185468.79     -193348.92      12960.611     -180388.31      1.4689524      19683               2199 
   1173000   2002.2991      186961.69     -193358.25      13118.704     -180239.55      1.4689524      19683               2199 
   1173500   1989.8275      187736.31     -193172.78      13036.993     -180135.78      1.4689524      19683               2199 
   1174000   1969.6283      198345.71     -192929.34      12904.651     -180024.69      1.4689524      19683               2199 
   1174500   2044.2269      182946.23     -193332.19      13393.408     -179938.79      1.4689524      19683               2199 
   1175000   2035.4579      191046.22     -193289.36      13335.955     -179953.4       1.4689524      19683               2199 
   1175500   2050.174       194155.47     -193530.74      13432.372     -180098.37      1.4689524      19683               2199 
   1176000   1991.395       202039.76     -193446.48      13047.263     -180399.22      1.4689524      19683               2199 
   1176500   1966.7268      196974.13     -193495.03      12885.641     -180609.38      1.4689524      19683               2199 
   1177000   1967.9221      197222.38     -193547.56      12893.472     -180654.09      1.4689524      19683               2199 
   1177500   1982.2435      178380.47     -193532.99      12987.304     -180545.69      1.4689524      19683               2199 
   1178000   1937.0373      186664.1      -193102.21      12691.121     -180411.09      1.4689524      19683               2199 
   1178500   2039.1099      190880.17     -193637.26      13359.882     -180277.38      1.4689524      19683               2199 
   1179000   1991.7729      185677.11     -193220.69      13049.738     -180170.95      1.4689524      19683               2199 
   1179500   2013.668       191595.65     -193302.79      13193.191     -180109.6       1.4689524      19683               2199 
   1180000   1982.3619      190487.26     -193072.91      12988.08      -180084.83      1.4689524      19683               2199 
   1180500   2056.327       185740.87     -193548.8       13472.685     -180076.12      1.4689524      19683               2199 
   1181000   1987.9539      185709.59     -193163.56      13024.717     -180138.84      1.4689524      19683               2199 
   1181500   2010.4314      179767.42     -193343.89      13171.985     -180171.91      1.4689524      19683               2199 
   1182000   1977.5577      188609.25     -193156.2       12956.603     -180199.6       1.4689524      19683               2199 
   1182500   1975.9473      191925.04     -193182.45      12946.052     -180236.39      1.4689524      19683               2199 
   1183000   2013.6024      188326.83     -193593.37      13192.761     -180400.61      1.4689524      19683               2199 
   1183500   1983.7409      187541.34     -193847.93      12997.114     -180850.81      1.4689524      19683               2199 
   1184000   1930.483       175071.28     -193704.4       12648.178     -181056.22      1.4689524      19683               2199 
   1184500   1954.8988      191014.06     -193809.96      12808.146     -181001.81      1.4689524      19683               2199 
   1185000   2001.8449      197708.2      -193884         13115.728     -180768.27      1.4689524      19683               2199 
   1185500   1997.1231      192962.84     -193611.35      13084.792     -180526.56      1.4689524      19683               2199 
   1186000   1998.4406      196155.4      -193440.71      13093.424     -180347.28      1.4689524      19683               2199 
   1186500   2022.8452      192848.26     -193490.78      13253.319     -180237.46      1.4689524      19683               2199 
   1187000   2022.5369      189113.57     -193462.23      13251.299     -180210.94      1.4689524      19683               2199 
   1187500   2017.0451      199204.46     -193422.62      13215.318     -180207.3       1.4689524      19683               2199 
   1188000   1988.3762      194940.61     -193236.61      13027.484     -180209.13      1.4689524      19683               2199 
   1188500   2041.3923      187281.22     -193637.97      13374.836     -180263.14      1.4689524      19683               2199 
   1189000   1949.5569      191617.48     -193254.33      12773.147     -180481.18      1.4689524      19683               2199 
   1189500   2000.9363      192328.88     -193861.78      13109.776     -180752.01      1.4689524      19683               2199 
   1190000   1946.8694      186111.45     -193651.5       12755.539     -180895.96      1.4689524      19683               2199 
   1190500   1985.8465      182122.01     -193901.1       13010.91      -180890.19      1.4689524      19683               2199 
   1191000   1925.2658      191435.85     -193375.05      12613.996     -180761.06      1.4689524      19683               2199 
   1191500   1996.8511      191627.78     -193535.68      13083.01      -180452.67      1.4689524      19683               2199 
   1192000   1984.1495      192456.7      -193212.17      12999.791     -180212.38      1.4689524      19683               2199 
   1192500   2017.0395      190346.55     -193334.88      13215.28      -180119.6       1.4689524      19683               2199 
   1193000   2015.2156      187087.99     -193311.92      13203.331     -180108.59      1.4689524      19683               2199 
   1193500   2012.0344      186045.29     -193335.34      13182.488     -180152.86      1.4689524      19683               2199 
   1194000   2010.4737      187334.33     -193425.29      13172.262     -180253.02      1.4689524      19683               2199 
   1194500   2014.5283      192104.25     -193592.42      13198.828     -180393.59      1.4689524      19683               2199 
   1195000   1963.7854      191145.74     -193458.32      12866.369     -180591.96      1.4689524      19683               2199 
   1195500   1927.0572      183690.48     -193343.77      12625.733     -180718.04      1.4689524      19683               2199 
   1196000   1980.4309      184974.22     -193728.66      12975.428     -180753.23      1.4689524      19683               2199 
   1196500   1970.5135      175519.5      -193559.41      12910.45      -180648.96      1.4689524      19683               2199 
   1197000   2018.1808      177165.75     -193535.23      13222.758     -180312.47      1.4689524      19683               2199 
   1197500   2020.6935      186569.78     -193210.53      13239.221     -179971.3       1.4689524      19683               2199 
   1198000   2020.0315      193476.06     -193053.32      13234.884     -179818.44      1.4689524      19683               2199 
   1198500   1982.7943      198638.23     -192792.2       12990.912     -179801.29      1.4689524      19683               2199 
   1199000   1988.9594      185385.08     -192907.73      13031.305     -179876.42      1.4689524      19683               2199 
   1199500   2084.1277      189889.39     -193691.14      13654.831     -180036.31      1.4689524      19683               2199 
   1200000   2021.2899      178882.01     -193516.48      13243.129     -180273.35      1.4689524      19683               2199 
   1200500   1940.5205      185706.1      -193192.57      12713.942     -180478.62      1.4689524      19683               2199 
   1201000   1953.5154      193671.71     -193306.78      12799.082     -180507.7       1.4689524      19683               2199 
   1201500   2025.8861      190411.71     -193736.76      13273.242     -180463.52      1.4689524      19683               2199 
   1202000   2016.0674      183938.33     -193628.41      13208.912     -180419.5       1.4689524      19683               2199 
   1202500   1963.9126      192513.41     -193223.02      12867.203     -180355.82      1.4689524      19683               2199 
   1203000   2002.1639      191822.02     -193402.22      13117.819     -180284.4       1.4689524      19683               2199 
   1203500   2053.3213      184730.7      -193710.58      13452.992     -180257.59      1.4689524      19683               2199 
   1204000   1988.2327      193056.79     -193256.9       13026.544     -180230.36      1.4689524      19683               2199 
   1204500   2005.7466      201022.82     -193361         13141.291     -180219.71      1.4689524      19683               2199 
   1205000   2003.2836      191571.44     -193359.92      13125.155     -180234.77      1.4689524      19683               2199 
   1205500   2048.9968      189155.52     -193630.63      13424.659     -180205.97      1.4689524      19683               2199 
   1206000   2043.6714      189954.18     -193609.5       13389.768     -180219.73      1.4689524      19683               2199 
   1206500   2021.1343      185382        -193509.36      13242.109     -180267.25      1.4689524      19683               2199 
   1207000   1957.8124      198581.46     -193202.39      12827.235     -180375.16      1.4689524      19683               2199 
   1207500   1945.5152      191060.64     -193289.13      12746.667     -180542.46      1.4689524      19683               2199 
   1208000   1969.6213      193053.3      -193633.19      12904.605     -180728.58      1.4689524      19683               2199 
   1208500   1916.397       183194.86     -193413.92      12555.889     -180858.03      1.4689524      19683               2199 
   1209000   1972.3677      182436.41     -193787.04      12922.599     -180864.44      1.4689524      19683               2199 
   1209500   1976.4082      188025.05     -193691.26      12949.072     -180742.19      1.4689524      19683               2199 
   1210000   2012.4218      191453.18     -193573.82      13185.027     -180388.79      1.4689524      19683               2199 
   1210500   2020.945       202002.57     -193344.9       13240.869     -180104.03      1.4689524      19683               2199 
   1211000   2034.1208      189694.94     -193373         13327.195     -180045.8       1.4689524      19683               2199 
   1211500   2051.2555      187147.03     -193581.87      13439.458     -180142.41      1.4689524      19683               2199 
   1212000   2007.3357      189098.41     -193443.1       13151.703     -180291.4       1.4689524      19683               2199 
   1212500   1974.6105      184985.76     -193383.33      12937.294     -180446.03      1.4689524      19683               2199 
   1213000   2000.0938      184710.9      -193649.83      13104.256     -180545.58      1.4689524      19683               2199 
   1213500   2035.8733      191895.55     -193946.16      13338.676     -180607.48      1.4689524      19683               2199 
   1214000   1977.8773      187225.36     -193574.69      12958.697     -180615.99      1.4689524      19683               2199 
   1214500   1967.4917      181476.22     -193451.47      12890.652     -180560.82      1.4689524      19683               2199 
   1215000   2019.1938      199072.25     -193593.63      13229.395     -180364.23      1.4689524      19683               2199 
   1215500   2027.4302      193923.89     -193332.61      13283.359     -180049.25      1.4689524      19683               2199 
   1216000   2053.2515      190752.18     -193319.11      13452.535     -179866.57      1.4689524      19683               2199 
   1216500   2039.918       186507.66     -193187.69      13365.177     -179822.52      1.4689524      19683               2199 
   1217000   2013.1493      190183.9      -193102.63      13189.793     -179912.84      1.4689524      19683               2199 
   1217500   2045.2998      188923.73     -193497.16      13400.437     -180096.73      1.4689524      19683               2199 
   1218000   1964.4688      192574        -193239.03      12870.847     -180368.18      1.4689524      19683               2199 
   1218500   1928.4404      180500.23     -193147.32      12634.795     -180512.53      1.4689524      19683               2199 
   1219000   1994.4971      188432.13     -193600.43      13067.587     -180532.85      1.4689524      19683               2199 
   1219500   2003.4557      189285        -193640.53      13126.282     -180514.25      1.4689524      19683               2199 
   1220000   1991.307       185070.54     -193517.28      13046.686     -180470.59      1.4689524      19683               2199 
   1220500   1992.1728      185384.27     -193471.85      13052.359     -180419.49      1.4689524      19683               2199 
   1221000   1991.3878      190758.62     -193423.17      13047.215     -180375.95      1.4689524      19683               2199 
   1221500   1995.9263      197004.45     -193358.57      13076.951     -180281.62      1.4689524      19683               2199 
   1222000   1953.3781      196282.51     -192986.38      12798.182     -180188.2       1.4689524      19683               2199 
   1222500   1973.9503      195465.1      -193033.48      12932.968     -180100.51      1.4689524      19683               2199 
   1223000   2034.5821      190353.52     -193390.96      13330.217     -180060.74      1.4689524      19683               2199 
   1223500   2012.887       181996.22     -193261.46      13188.074     -180073.39      1.4689524      19683               2199 
   1224000   2029.6156      184893.78     -193425.48      13297.677     -180127.8       1.4689524      19683               2199 
   1224500   2002.1339      177753.61     -193264.87      13117.622     -180147.25      1.4689524      19683               2199 
   1225000   1978.0143      184711.66     -193104.34      12959.595     -180144.74      1.4689524      19683               2199 
   1225500   1963.5142      193882.6      -192993.87      12864.593     -180129.28      1.4689524      19683               2199 
   1226000   2033.8693      188139.33     -193462.41      13325.547     -180136.86      1.4689524      19683               2199 
   1226500   2026.4339      185274.58     -193461.66      13276.831     -180184.83      1.4689524      19683               2199 
   1227000   2015.5651      185223.69     -193471.19      13205.621     -180265.57      1.4689524      19683               2199 
   1227500   2021.766       188447.37     -193625.89      13246.248     -180379.64      1.4689524      19683               2199 
   1228000   1972.3236      183493.47     -193429.09      12922.31      -180506.78      1.4689524      19683               2199 
   1228500   1978.6009      193993.57     -193524.39      12963.438     -180560.95      1.4689524      19683               2199 
   1229000   1966.7046      188976.2      -193430.49      12885.495     -180544.99      1.4689524      19683               2199 
   1229500   1991.632       193634.83     -193454.72      13048.816     -180405.91      1.4689524      19683               2199 
   1230000   1989.4299      186948.19     -193180.86      13034.388     -180146.47      1.4689524      19683               2199 
   1230500   2031.2799      190991.92     -193200.26      13308.582     -179891.68      1.4689524      19683               2199 
   1231000   2048.3658      189279.93     -193181.01      13420.525     -179760.49      1.4689524      19683               2199 
   1231500   2064.4962      185857.22     -193337.91      13526.208     -179811.7       1.4689524      19683               2199 
   1232000   2007.1624      197155.69     -193110.72      13150.568     -179960.16      1.4689524      19683               2199 
   1232500   1967.0276      192546.79     -192995.85      12887.612     -180108.24      1.4689524      19683               2199 
   1233000   2050.496       178946.91     -193613.49      13434.482     -180179.01      1.4689524      19683               2199 
   1233500   2024.0608      187417.93     -193481.82      13261.283     -180220.53      1.4689524      19683               2199 
   1234000   1998.5554      188772.01     -193346.18      13094.176     -180252         1.4689524      19683               2199 
   1234500   2000.3203      194297.94     -193423.71      13105.739     -180317.97      1.4689524      19683               2199 
   1235000   2001.3317      184287.95     -193534.1       13112.366     -180421.73      1.4689524      19683               2199 
   1235500   1966.477       182740.38     -193405.41      12884.004     -180521.41      1.4689524      19683               2199 
   1236000   2004.0273      184896.69     -193779.05      13130.027     -180649.02      1.4689524      19683               2199 
   1236500   1939.8958      188844.7      -193521.14      12709.849     -180811.29      1.4689524      19683               2199 
   1237000   1979.4356      183686.03     -193999.12      12968.907     -181030.22      1.4689524      19683               2199 
   1237500   1927.0314      186573.95     -193810.5       12625.564     -181184.94      1.4689524      19683               2199 
   1238000   1951.5831      181785.25     -193921.5       12786.422     -181135.08      1.4689524      19683               2199 
   1238500   1971.0017      192289.99     -193723.49      12913.649     -180809.84      1.4689524      19683               2199 
   1239000   2012.4248      188235.78     -193700.68      13185.046     -180515.64      1.4689524      19683               2199 
   1239500   1945.8684      190819.89     -193123.46      12748.981     -180374.48      1.4689524      19683               2199 
   1240000   2056.5519      185062.74     -193771.62      13474.159     -180297.46      1.4689524      19683               2199 
   1240500   2046.9747      202203.6      -193710.42      13411.411     -180299.01      1.4689524      19683               2199 
   1241000   1986.8777      192948.78     -193386.79      13017.666     -180369.13      1.4689524      19683               2199 
   1241500   1942.8615      188166.79     -193193.98      12729.28      -180464.7       1.4689524      19683               2199 
   1242000   2013.7272      187635.69     -193792.82      13193.579     -180599.24      1.4689524      19683               2199 
   1242500   1959.0904      192287.33     -193605.1       12835.608     -180769.49      1.4689524      19683               2199 
   1243000   1978.1645      183779.4      -193867.81      12960.579     -180907.23      1.4689524      19683               2199 
   1243500   1953.2587      184552.77     -193759.39      12797.4       -180961.99      1.4689524      19683               2199 
   1244000   1936.5968      190187.28     -193570.54      12688.234     -180882.31      1.4689524      19683               2199 
   1244500   1990.5052      193331.29     -193540.06      13041.433     -180498.62      1.4689524      19683               2199 
   1245000   2017.6306      190573.08     -193378.72      13219.153     -180159.57      1.4689524      19683               2199 
   1245500   2046.2524      189469.25     -193408.6       13406.679     -180001.92      1.4689524      19683               2199 
   1246000   2009.905       193603.41     -193151.09      13168.537     -179982.55      1.4689524      19683               2199 
   1246500   2013.7938      197690.08     -193260.05      13194.016     -180066.04      1.4689524      19683               2199 
   1247000   2003.0909      186463.68     -193371.6       13123.892     -180247.71      1.4689524      19683               2199 
   1247500   1949.0644      194253.02     -193203.94      12769.92      -180434.02      1.4689524      19683               2199 
   1248000   1958.7645      183529.85     -193408.46      12833.473     -180574.99      1.4689524      19683               2199 
   1248500   2019.1355      190127.56     -193870.6       13229.013     -180641.59      1.4689524      19683               2199 
   1249000   1989.9908      191209.97     -193722.01      13038.063     -180683.95      1.4689524      19683               2199 
   1249500   1993.3207      195350.66     -193709.11      13059.879     -180649.24      1.4689524      19683               2199 
   1250000   2010.5926      194438.77     -193589.65      13173.042     -180416.61      1.4689524      19683               2199 
   1250500   2042.0958      190617.46     -193400.33      13379.445     -180020.89      1.4689524      19683               2199 
   1251000   2052.1359      184408.09     -193256.59      13445.226     -179811.37      1.4689524      19683               2199 
   1251500   2038.2931      196960.61     -193150.01      13354.531     -179795.48      1.4689524      19683               2199 
   1252000   2043.2824      194638.86     -193292.72      13387.22      -179905.5       1.4689524      19683               2199 
   1252500   2011.8617      192770.38     -193339.98      13181.356     -180158.62      1.4689524      19683               2199 
   1253000   2028.9543      186161.36     -193658.39      13293.344     -180365.05      1.4689524      19683               2199 
   1253500   2020.1839      193433.94     -193719.29      13235.883     -180483.41      1.4689524      19683               2199 
   1254000   1993.9548      197778.28     -193576.96      13064.034     -180512.93      1.4689524      19683               2199 
   1254500   1946.1088      188984.72     -193257.77      12750.555     -180507.22      1.4689524      19683               2199 
   1255000   1947.7536      182508.47     -193207.03      12761.332     -180445.7       1.4689524      19683               2199 
   1255500   2015.0859      184687.36     -193514.23      13202.481     -180311.75      1.4689524      19683               2199 
   1256000   1998.4648      186144.59     -193185.5       13093.583     -180091.92      1.4689524      19683               2199 
   1256500   2065.5763      188221.28     -193291.89      13533.285     -179758.61      1.4689524      19683               2199 
   1257000   2057.0957      193968.36     -192987.03      13477.721     -179509.31      1.4689524      19683               2199 
   1257500   2105.4229      195172.14     -193217.45      13794.353     -179423.09      1.4689524      19683               2199 
   1258000   2073.3264      190199.87     -193165.52      13584.063     -179581.46      1.4689524      19683               2199 
   1258500   2015.6931      202125.57     -193207.41      13206.459     -180000.95      1.4689524      19683               2199 
   1259000   2009.2164      190094.58     -193404.64      13164.025     -180240.61      1.4689524      19683               2199 
   1259500   2000.2581      186305.89     -193437.8       13105.332     -180332.47      1.4689524      19683               2199 
   1260000   2015.4659      195677.47     -193612.81      13204.971     -180407.84      1.4689524      19683               2199 
   1260500   1979.141       190084.14     -193440.21      12966.977     -180473.23      1.4689524      19683               2199 
   1261000   1964.2748      193117.54     -193317.86      12869.576     -180448.29      1.4689524      19683               2199 
   1261500   2016.4414      184819.45     -193584.15      13211.362     -180372.79      1.4689524      19683               2199 
   1262000   2035.9711      185955.96     -193667.1       13339.317     -180327.78      1.4689524      19683               2199 
   1262500   2013.5578      193724.36     -193452.24      13192.469     -180259.77      1.4689524      19683               2199 
   1263000   2021.3651      193325.12     -193455         13243.621     -180211.37      1.4689524      19683               2199 
   1263500   2030.3843      196439.48     -193475.19      13302.714     -180172.47      1.4689524      19683               2199 
   1264000   2027.2158      197461.07     -193385.57      13281.954     -180103.62      1.4689524      19683               2199 
   1264500   2006.7602      191115.76     -193162.62      13147.933     -180014.69      1.4689524      19683               2199 
   1265000   2043.5094      195643.75     -193344.23      13388.707     -179955.53      1.4689524      19683               2199 
   1265500   2018.2152      199304.08     -193256.98      13222.983     -180034         1.4689524      19683               2199 
   1266000   2018.5032      194194.58     -193486.28      13224.871     -180261.41      1.4689524      19683               2199 
   1266500   2008.5857      184851.29     -193661.91      13159.893     -180502.02      1.4689524      19683               2199 
   1267000   1995.9148      188650.31     -193752.65      13076.875     -180675.78      1.4689524      19683               2199 
   1267500   1973.2765      187785.53     -193675.98      12928.554     -180747.43      1.4689524      19683               2199 
   1268000   1960.6139      195901.89     -193585.88      12845.59      -180740.29      1.4689524      19683               2199 
   1268500   1964.9928      180454.76     -193533.84      12874.28      -180659.56      1.4689524      19683               2199 
   1269000   1994.2395      189849.67     -193613.07      13065.899     -180547.17      1.4689524      19683               2199 
   1269500   2006.6361      190820.73     -193450.45      13147.119     -180303.33      1.4689524      19683               2199 
   1270000   2046.3418      186068.12     -193327.66      13407.264     -179920.4       1.4689524      19683               2199 
   1270500   2051.7492      205150.33     -193180.5       13442.692     -179737.8       1.4689524      19683               2199 
   1271000   2089.575       193165.63     -193451.19      13690.52      -179760.67      1.4689524      19683               2199 
   1271500   2072.2303      196182.66     -193463.56      13576.881     -179886.68      1.4689524      19683               2199 
   1272000   2014.449       191617.65     -193218.51      13198.308     -180020.21      1.4689524      19683               2199 
   1272500   1993.3027      189614.4      -193228.57      13059.761     -180168.81      1.4689524      19683               2199 
   1273000   1972.0655      194494.3      -193239.89      12920.619     -180319.27      1.4689524      19683               2199 
   1273500   1997.6216      194772.83     -193528.08      13088.058     -180440.02      1.4689524      19683               2199 
   1274000   1945.7149      187797.18     -193267.21      12747.975     -180519.24      1.4689524      19683               2199 
   1274500   2010.8392      194567.31     -193622.18      13174.657     -180447.52      1.4689524      19683               2199 
   1275000   1986.9314      187323.1      -193341.97      13018.018     -180323.95      1.4689524      19683               2199 
   1275500   2007.4259      189455.15     -193354.98      13152.294     -180202.69      1.4689524      19683               2199 
   1276000   2033.4369      200269.77     -193386.48      13322.714     -180063.77      1.4689524      19683               2199 
   1276500   2028.5797      195052.1      -193070.4       13290.89      -179779.51      1.4689524      19683               2199 
   1277000   2076.7679      200944.2      -193089.7       13606.61      -179483.09      1.4689524      19683               2199 
   1277500   2051.9606      194798.47     -192859.44      13444.077     -179415.36      1.4689524      19683               2199 
   1278000   2080.0698      200912.71     -193212.48      13628.244     -179584.24      1.4689524      19683               2199 
   1278500   2032.6796      190412.61     -193213.26      13317.752     -179895.51      1.4689524      19683               2199 
   1279000   1976.3389      193357.29     -193068.87      12948.617     -180120.25      1.4689524      19683               2199 
   1279500   2064.2029      178644.4      -193710.77      13524.287     -180186.49      1.4689524      19683               2199 
   1280000   2002.3302      198018.37     -193383.4       13118.908     -180264.49      1.4689524      19683               2199 
   1280500   2029.7108      197685.18     -193644.48      13298.301     -180346.18      1.4689524      19683               2199 
   1281000   1983.4017      190795.38     -193432         12994.892     -180437.11      1.4689524      19683               2199 
   1281500   1995.4116      180627.31     -193555.68      13073.579     -180482.1       1.4689524      19683               2199 
   1282000   1966.0793      180752.21     -193396.52      12881.399     -180515.12      1.4689524      19683               2199 
   1282500   1994.7709      190288.38     -193547.85      13069.381     -180478.47      1.4689524      19683               2199 
   1283000   2037.2159      188868.14     -193691.72      13347.473     -180344.24      1.4689524      19683               2199 
   1283500   2046.1653      180333.35     -193519.9       13406.108     -180113.79      1.4689524      19683               2199 
   1284000   2049.9666      187091.26     -193355.33      13431.013     -179924.32      1.4689524      19683               2199 
   1284500   2025.2363      204966.84     -193111.97      13268.985     -179842.98      1.4689524      19683               2199 
   1285000   2075.8423      193980.65     -193515.89      13600.546     -179915.34      1.4689524      19683               2199 
   1285500   2032.0822      187323.57     -193543.02      13313.838     -180229.18      1.4689524      19683               2199 
   1286000   1964.2985      194506.37     -193383.96      12869.731     -180514.23      1.4689524      19683               2199 
   1286500   2017.7231      186973.22     -193799.97      13219.76      -180580.21      1.4689524      19683               2199 
   1287000   1962.1419      191041.1      -193389.26      12855.602     -180533.66      1.4689524      19683               2199 
   1287500   1970.8033      187655.69     -193380.21      12912.349     -180467.86      1.4689524      19683               2199 
   1288000   2025.1596      185532.45     -193635.51      13268.482     -180367.03      1.4689524      19683               2199 
   1288500   1991.0475      196204.06     -193308.17      13044.986     -180263.18      1.4689524      19683               2199 
   1289000   2026.0068      187085.77     -193478.9       13274.033     -180204.87      1.4689524      19683               2199 
   1289500   2069.2127      184605.04     -193696.52      13557.11      -180139.41      1.4689524      19683               2199 
   1290000   2028.3752      193913.36     -193344.1       13289.55      -180054.55      1.4689524      19683               2199 
   1290500   2033.8638      202507.8      -193326.07      13325.51      -180000.56      1.4689524      19683               2199 
   1291000   2099.5015      190942.06     -193817.73      13755.557     -180062.17      1.4689524      19683               2199 
   1291500   2009.2276      190333.68     -193450.79      13164.098     -180286.69      1.4689524      19683               2199 
   1292000   1974.0705      187918.33     -193506.54      12933.756     -180572.78      1.4689524      19683               2199 
   1292500   1944.9463      186438.48     -193453.52      12742.939     -180710.59      1.4689524      19683               2199 
   1293000   2018.3733      185717.74     -193904.64      13224.02      -180680.62      1.4689524      19683               2199 
   1293500   1995.3778      191108.66     -193694.06      13073.357     -180620.7       1.4689524      19683               2199 
   1294000   1992.0522      191397.97     -193538.88      13051.568     -180487.31      1.4689524      19683               2199 
   1294500   2052.6648      186407.19     -193706.57      13448.691     -180257.88      1.4689524      19683               2199 
   1295000   1988.0469      199522.53     -193021.33      13025.326     -179996.01      1.4689524      19683               2199 
   1295500   2020.1593      194944.15     -193030.04      13235.721     -179794.32      1.4689524      19683               2199 
   1296000   2014.4449      187422.41     -192918.35      13198.282     -179720.07      1.4689524      19683               2199 
   1296500   2046.4334      185551.12     -193187.48      13407.865     -179779.62      1.4689524      19683               2199 
   1297000   2033.0486      185033.44     -193485.08      13320.169     -180164.91      1.4689524      19683               2199 
   1297500   1981.3356      182029.97     -193554.46      12981.355     -180573.11      1.4689524      19683               2199 
   1298000   1929.6425      188716.53     -193322.58      12642.671     -180679.91      1.4689524      19683               2199 
   1298500   1979.8329      195297.21     -193591.81      12971.51      -180620.3       1.4689524      19683               2199 
   1299000   1996.8372      181372.67     -193542.08      13082.919     -180459.17      1.4689524      19683               2199 
   1299500   2038.9767      190883.71     -193593.66      13359.009     -180234.65      1.4689524      19683               2199 
   1300000   2020.8893      186823.9      -193310.19      13240.504     -180069.68      1.4689524      19683               2199 
   1300500   2068.6576      186194.59     -193503.13      13553.473     -179949.65      1.4689524      19683               2199 
   1301000   2023.3326      184560.08     -193196.83      13256.512     -179940.32      1.4689524      19683               2199 
   1301500   2046.7409      183881.11     -193442.66      13409.879     -180032.78      1.4689524      19683               2199 
   1302000   2020.7442      194127.98     -193528.19      13239.553     -180288.64      1.4689524      19683               2199 
   1302500   1983.4198      182787.03     -193597.55      12995.011     -180602.54      1.4689524      19683               2199 
   1303000   2007.5952      193340.07     -193872.4       13153.403     -180719         1.4689524      19683               2199 
   1303500   1985.0291      186181.77     -193685.12      13005.554     -180679.56      1.4689524      19683               2199 
   1304000   2008.2881      182833.9      -193738.68      13157.943     -180580.74      1.4689524      19683               2199 
   1304500   1958.9083      184759.8      -193266.41      12834.415     -180431.99      1.4689524      19683               2199 
   1305000   2000.2101      183072.88     -193373.94      13105.017     -180268.92      1.4689524      19683               2199 
   1305500   2027.4319      200843.53     -193462.06      13283.37      -180178.69      1.4689524      19683               2199 
   1306000   1999.4951      192733.25     -193259.66      13100.333     -180159.33      1.4689524      19683               2199 
   1306500   2018.2543      188940.2      -193380.73      13223.24      -180157.49      1.4689524      19683               2199 
   1307000   1997.9483      193292.86     -193301.66      13090.199     -180211.47      1.4689524      19683               2199 
   1307500   1976.4346      186880.44     -193362.06      12949.245     -180412.82      1.4689524      19683               2199 
   1308000   1961.3226      183393.57     -193664.81      12850.234     -180814.58      1.4689524      19683               2199 
   1308500   1972.543       187031.8      -193932.37      12923.748     -181008.62      1.4689524      19683               2199 
   1309000   1961.5797      178343.71     -193881.4       12851.918     -181029.48      1.4689524      19683               2199 
   1309500   1923.6752      200716.16     -193495.51      12603.574     -180891.94      1.4689524      19683               2199 
   1310000   1966.2016      197417.74     -193489.1       12882.2       -180606.9       1.4689524      19683               2199 
   1310500   2012.4537      189181.9      -193534.62      13185.235     -180349.38      1.4689524      19683               2199 
   1311000   2020.2159      191148.12     -193487.95      13236.092     -180251.86      1.4689524      19683               2199 
   1311500   1987.1367      179553.64     -193251.65      13019.363     -180232.29      1.4689524      19683               2199 
   1312000   1989.4619      190802.28     -193282.74      13034.597     -180248.14      1.4689524      19683               2199 
   1312500   2030.7268      188048.87     -193593.76      13304.957     -180288.8       1.4689524      19683               2199 
   1313000   2007.5973      187616        -193560.1       13153.417     -180406.68      1.4689524      19683               2199 
   1313500   1969.6337      184281.65     -193512.12      12904.686     -180607.43      1.4689524      19683               2199 
   1314000   1954.0411      183284.77     -193611.07      12802.526     -180808.54      1.4689524      19683               2199 
   1314500   1968.8258      182220.41     -193804.3       12899.393     -180904.91      1.4689524      19683               2199 
   1315000   1996.4192      181662.57     -193984.29      13080.18      -180904.11      1.4689524      19683               2199 
   1315500   1966.4911      185789.96     -193685.68      12884.097     -180801.58      1.4689524      19683               2199 
   1316000   1929.2978      182391.88     -193168.55      12640.413     -180528.14      1.4689524      19683               2199 
   1316500   2018.9268      184641.91     -193392.08      13227.646     -180164.44      1.4689524      19683               2199 
   1317000   2016.715       200308.95     -193197.9       13213.155     -179984.74      1.4689524      19683               2199 
   1317500   2002.5615      194984.32     -193056.12      13120.424     -179935.7       1.4689524      19683               2199 
   1318000   2032.6627      184278.55     -193310.32      13317.641     -179992.68      1.4689524      19683               2199 
   1318500   2035.3672      196985.89     -193493.71      13335.361     -180158.35      1.4689524      19683               2199 
   1319000   1977.7051      193746.11     -193362.99      12957.569     -180405.42      1.4689524      19683               2199 
   1319500   1990.712       182136.57     -193654.69      13042.788     -180611.9       1.4689524      19683               2199 
   1320000   1956.8534      191946.76     -193529.47      12820.952     -180708.52      1.4689524      19683               2199 
   1320500   2016.4131      183740.9      -193975.25      13211.177     -180764.07      1.4689524      19683               2199 
   1321000   1970.195       185838.51     -193716.26      12908.364     -180807.9       1.4689524      19683               2199 
   1321500   1973.6861      187773.23     -193664.7       12931.237     -180733.47      1.4689524      19683               2199 
   1322000   1958.6108      189859.9      -193367.46      12832.466     -180534.99      1.4689524      19683               2199 
   1322500   2026.0495      194434.62     -193565.68      13274.313     -180291.37      1.4689524      19683               2199 
   1323000   2009.2518      192934.56     -193293.53      13164.257     -180129.28      1.4689524      19683               2199 
   1323500   2038.9874      182918.19     -193433.14      13359.08      -180074.06      1.4689524      19683               2199 
   1324000   2060.8681      192370.51     -193660.69      13502.438     -180158.26      1.4689524      19683               2199 
   1324500   2002.7288      187925.57     -193566.09      13121.52      -180444.57      1.4689524      19683               2199 
   1325000   1948.928       192971.94     -193607.63      12769.026     -180838.6       1.4689524      19683               2199 
   1325500   1940.2901      186174.29     -193632.95      12712.432     -180920.52      1.4689524      19683               2199 
   1326000   1971.5419      197235.24     -193782.41      12917.189     -180865.22      1.4689524      19683               2199 
   1326500   1963.4144      190865.2      -193610.33      12863.939     -180746.39      1.4689524      19683               2199 
   1327000   1995.3855      182390.8      -193652.23      13073.408     -180578.82      1.4689524      19683               2199 
   1327500   2036.6759      196218.75     -193734.17      13343.935     -180390.24      1.4689524      19683               2199 
   1328000   2037.235       188026.83     -193554.09      13347.598     -180206.49      1.4689524      19683               2199 
   1328500   2012.5743      196989.05     -193329.98      13186.025     -180143.96      1.4689524      19683               2199 
   1329000   2063.8859      189938.93     -193648.8       13522.21      -180126.59      1.4689524      19683               2199 
   1329500   2049.6251      181747.52     -193745.21      13428.776     -180316.43      1.4689524      19683               2199 
   1330000   2023.8018      182527.03     -193852.84      13259.586     -180593.25      1.4689524      19683               2199 
   1330063   2009.422       187404.63     -193785.81      13165.372     -180620.44      1.4689524      19683               2199 
Loop time of 19150.4 on 48 procs for 400000 steps with 2199 atoms

Performance: 0.180 ns/day, 132.989 hours/ns, 20.887 timesteps/s, 45.931 katom-step/s
99.4% CPU use with 12 MPI tasks x 4 OpenMP threads

MPI task timing breakdown:
Section |  min time  |  avg time  |  max time  |%varavg| %total
---------------------------------------------------------------
Pair    | 16115      | 16213      | 16335      |  57.4 | 84.66
Neigh   | 136.58     | 137.51     | 139.59     |   6.8 |  0.72
Comm    | 279.52     | 401.2      | 498.67     | 363.0 |  2.10
Output  | 0.10383    | 0.12054    | 0.14431    |   3.0 |  0.00
Modify  | 2386.8     | 2389.8     | 2391.4     |   2.4 | 12.48
Other   |            | 9.159      |            |       |  0.05

Nlocal:         183.25 ave         188 max         176 min
Histogram: 1 1 0 1 2 0 1 1 2 3
Nghost:        4990.08 ave        5045 max        4927 min
Histogram: 1 1 1 0 2 1 2 2 0 2
Neighs:         133331 ave      136906 max      128135 min
Histogram: 1 0 2 2 0 0 1 1 3 2

Total # of neighbors = 1599969
Ave neighs/atom = 727.58936
Neighbor list builds = 4615
Dangerous builds = 0
System init for write_restart ...
--- Condensation Stage 4/4 ---
Setting up Verlet run ...
  Unit style    : real
  Current step  : 1330063
  Time step     : 0.1
Per MPI rank memory allocation (min/avg/max) = 357.4 | 362.2 | 366.6 Mbytes
   Step          Temp          Press          PotEng         KinEng         TotEng        Density         Volume        Atoms   
   1330063   2009.422       187404.3      -193785.82      13165.372     -180620.44      1.4689524      19683               2199 
   1330500   1943.1229      183350.63     -193496.32      12730.992     -180765.33      1.4689524      19683               2199 
   1331000   2000.516       189550.7      -193894.64      13107.022     -180787.62      1.4689524      19683               2199 
   1331500   1983.0895      189930.82     -193727.03      12992.846     -180734.18      1.4689524      19683               2199 
   1332000   2000.2361      193736.01     -193714.5       13105.188     -180609.31      1.4689524      19683               2199 
   1332500   2023.61        194147.09     -193735.53      13258.329     -180477.2       1.4689524      19683               2199 
   1333000   2010.327       196051.68     -193551.16      13171.302     -180379.86      1.4689524      19683               2199 
   1333500   2035.6555      194362.51     -193661.62      13337.249     -180324.37      1.4689524      19683               2199 
   1334000   2030.5694      192808.37     -193624.36      13303.926     -180320.43      1.4689524      19683               2199 
   1334500   1995.9915      183323.71     -193491.46      13077.378     -180414.08      1.4689524      19683               2199 
   1335000   2002.6143      179566.34     -193795.17      13120.769     -180674.4       1.4689524      19683               2199 
   1335500   1975.2757      187185.89     -193871.2       12941.652     -180929.55      1.4689524      19683               2199 
   1336000   1956.1902      192471.24     -193901.62      12816.607     -181085.02      1.4689524      19683               2199 
   1336500   1916.7337      192060.17     -193598.39      12558.095     -181040.29      1.4689524      19683               2199 
   1337000   1968.7441      193557.09     -193691.71      12898.858     -180792.85      1.4689524      19683               2199 
   1337500   2028.5167      183629.2      -193806.95      13290.477     -180516.47      1.4689524      19683               2199 
   1338000   2016.3507      193828.12     -193579.92      13210.768     -180369.16      1.4689524      19683               2199 
   1338500   1993.442       193957.42     -193376.05      13060.674     -180315.37      1.4689524      19683               2199 
   1339000   2074.9938      179757.98     -193878.6       13594.987     -180283.62      1.4689524      19683               2199 
   1339500   2032.852       196257.43     -193601.75      13318.882     -180282.87      1.4689524      19683               2199 
   1340000   1993.6651      189273.51     -193364.08      13062.136     -180301.94      1.4689524      19683               2199 
   1340500   2016.5654      185631.13     -193594.97      13212.175     -180382.79      1.4689524      19683               2199 
   1341000   2015.8973      186033.73     -193825.97      13207.797     -180618.17      1.4689524      19683               2199 
   1341500   1963.0508      190812.08     -193748.92      12861.557     -180887.36      1.4689524      19683               2199 
   1342000   1977.8028      181594.26     -193997.71      12958.209     -181039.5       1.4689524      19683               2199 
   1342500   1948.5887      189505.26     -193807.04      12766.803     -181040.24      1.4689524      19683               2199 
   1343000   1930.2066      177460.67     -193564.89      12646.367     -180918.52      1.4689524      19683               2199 
   1343500   2037.0224      182633.55     -194004.11      13346.205     -180657.91      1.4689524      19683               2199 
   1344000   2048.1636      189868.94     -193848.62      13419.201     -180429.42      1.4689524      19683               2199 
   1344500   2005.2234      191484.61     -193434.65      13137.864     -180296.79      1.4689524      19683               2199 
   1345000   2004.11        193395.56     -193389.42      13130.569     -180258.85      1.4689524      19683               2199 
   1345500   2038.3329      192136.62     -193623.33      13354.791     -180268.54      1.4689524      19683               2199 
   1346000   2028.2746      200108.89     -193595.63      13288.891     -180306.74      1.4689524      19683               2199 
   1346500   2002.9859      201026.97     -193506.53      13123.204     -180383.33      1.4689524      19683               2199 
   1347000   2004.8884      191922.99     -193576.16      13135.669     -180440.49      1.4689524      19683               2199 
   1347500   1969.2955      191701.94     -193382.94      12902.471     -180480.47      1.4689524      19683               2199 
   1348000   1992.0385      186766.6      -193479.68      13051.479     -180428.21      1.4689524      19683               2199 
   1348500   2015.5223      190664.62     -193566.71      13205.34      -180361.37      1.4689524      19683               2199 
   1349000   1990.1132      181071.06     -193133.79      13038.865     -180094.92      1.4689524      19683               2199 
   1349500   2076.2518      192970.4      -193310.16      13603.229     -179706.93      1.4689524      19683               2199 
   1350000   2082.4609      188826.71     -193270.8       13643.91      -179626.89      1.4689524      19683               2199 
   1350500   2066.3286      189051.54     -193292.25      13538.214     -179754.03      1.4689524      19683               2199 
   1351000   2023.0877      185295.84     -193243.03      13254.908     -179988.12      1.4689524      19683               2199 
   1351500   2007.0593      185078.93     -193366.32      13149.892     -180216.42      1.4689524      19683               2199 
   1352000   1973.6724      190380.73     -193280.08      12931.147     -180348.94      1.4689524      19683               2199 
   1352500   1977.1041      180181.98     -193378.97      12953.631     -180425.34      1.4689524      19683               2199 
   1353000   1978.7675      183937.76     -193427.35      12964.53      -180462.82      1.4689524      19683               2199 
   1353500   2014.8322      190379.57     -193638.64      13200.819     -180437.82      1.4689524      19683               2199 
   1354000   1989.8716      194467.64     -193464.01      13037.281     -180426.73      1.4689524      19683               2199 
   1354500   1969.4664      199514.83     -193283.03      12903.591     -180379.44      1.4689524      19683               2199 
   1355000   2008.8195      191498.06     -193463.65      13161.425     -180302.23      1.4689524      19683               2199 
   1355500   2064.3068      191159.62     -193670.36      13524.967     -180145.39      1.4689524      19683               2199 
   1356000   2024.08        188356.65     -193296.91      13261.409     -180035.5       1.4689524      19683               2199 
   1356500   2011.3425      189395        -193226.7       13177.955     -180048.74      1.4689524      19683               2199 
   1357000   2038.9079      187165.58     -193536.24      13358.559     -180177.68      1.4689524      19683               2199 
   1357500   1971.4825      191569.47     -193335.21      12916.799     -180418.41      1.4689524      19683               2199 
   1358000   2006.6021      185438.75     -193818.17      13146.897     -180671.27      1.4689524      19683               2199 
   1358500   1945.941       187113.71     -193567.56      12749.456     -180818.1       1.4689524      19683               2199 
   1359000   1947.0501      191685.21     -193584.75      12756.723     -180828.03      1.4689524      19683               2199 
   1359500   1988.4512      196191.23     -193783.05      13027.976     -180755.07      1.4689524      19683               2199 
   1360000   2001.0211      187878.3      -193714.31      13110.331     -180603.98      1.4689524      19683               2199 
   1360500   2010.1589      186770.81     -193579.48      13170.2       -180409.28      1.4689524      19683               2199 
   1361000   1989.5035      205475.51     -193353.99      13034.87      -180319.12      1.4689524      19683               2199 
   1361500   2024.3266      185045.64     -193599.51      13263.024     -180336.48      1.4689524      19683               2199 
   1362000   2010.719       187006.06     -193790.81      13173.87      -180616.94      1.4689524      19683               2199 
   1362500   1979.0047      185033.19     -194035.75      12966.083     -181069.66      1.4689524      19683               2199 
   1363000   1951.8092      176876.87     -193973.84      12787.904     -181185.94      1.4689524      19683               2199 
   1363500   1977.1384      175099.37     -194085.8       12953.856     -181131.95      1.4689524      19683               2199 
   1364000   1968.2059      177552.07     -193830.11      12895.332     -180934.78      1.4689524      19683               2199 
   1364500   2003.1299      185090.08     -193797.84      13124.148     -180673.7       1.4689524      19683               2199 
   1365000   2033.099       186626.83     -193810.72      13320.5       -180490.22      1.4689524      19683               2199 
   1365500   2025.6819      183918.33     -193679.86      13271.904     -180407.96      1.4689524      19683               2199 
   1366000   2030.0075      193747.89     -193648.11      13300.245     -180347.87      1.4689524      19683               2199 
   1366500   2017.7177      191330.04     -193536.39      13219.724     -180316.67      1.4689524      19683               2199 
   1367000   2027.1684      193783.77     -193631.1       13281.644     -180349.45      1.4689524      19683               2199 
   1367500   1985.9884      191136.76     -193506.66      13011.839     -180494.82      1.4689524      19683               2199 
   1368000   1976.9302      192271.85     -193790.6       12952.492     -180838.11      1.4689524      19683               2199 
   1368500   1990.1165      188699.74     -194122.52      13038.886     -181083.64      1.4689524      19683               2199 
   1369000   1931.1594      194487.8      -193752.49      12652.61      -181099.88      1.4689524      19683               2199 
   1369500   1947.9529      190611.87     -193701.59      12762.638     -180938.95      1.4689524      19683               2199 
   1370000   1972.7039      198369.32     -193671.49      12924.802     -180746.69      1.4689524      19683               2199 
   1370500   1969.4272      193011.37     -193483.21      12903.334     -180579.88      1.4689524      19683               2199 
   1371000   1979.5101      199922.95     -193441.17      12969.395     -180471.78      1.4689524      19683               2199 
   1371500   1994.9168      189601.76     -193479.82      13070.336     -180409.48      1.4689524      19683               2199 
   1372000   2020.0876      188876.86     -193603.48      13235.251     -180368.23      1.4689524      19683               2199 
   1372500   2002.6082      184619.5      -193487.52      13120.729     -180366.79      1.4689524      19683               2199 
   1373000   1959.0937      204618.9      -193239.2       12835.63      -180403.57      1.4689524      19683               2199 
   1373500   2008.0906      188751.27     -193586.05      13156.649     -180429.4       1.4689524      19683               2199 
   1374000   2010.1042      183984.97     -193616.3       13169.842     -180446.46      1.4689524      19683               2199 
   1374500   2017.3763      194829.84     -193647.04      13217.487     -180429.56      1.4689524      19683               2199 
   1375000   2024.8727      184309.89     -193729.43      13266.602     -180462.82      1.4689524      19683               2199 
   1375500   2013.6177      191603.67     -193691.2       13192.862     -180498.34      1.4689524      19683               2199 
   1376000   2001.2754      184439.1      -193636         13111.997     -180524         1.4689524      19683               2199 
   1376500   2031.6358      178572.68     -193905.9       13310.913     -180594.98      1.4689524      19683               2199 
   1377000   2002.5842      188227.23     -193806.07      13120.572     -180685.49      1.4689524      19683               2199 
   1377500   2031.2683      180772.87     -194057.07      13308.505     -180748.57      1.4689524      19683               2199 
   1378000   1976.4191      182068.17     -193692.39      12949.143     -180743.25      1.4689524      19683               2199 
   1378500   1951.2333      197714.67     -193486.53      12784.13      -180702.4       1.4689524      19683               2199 
   1379000   2038.0191      182265.01     -193957.34      13352.735     -180604.61      1.4689524      19683               2199 
   1379500   1972.9562      200398.25     -193469.78      12926.455     -180543.32      1.4689524      19683               2199 
   1380000   2006.1928      196163.16     -193638.92      13144.215     -180494.71      1.4689524      19683               2199 
   1380500   2037.3307      190706.02     -193803.25      13348.225     -180455.03      1.4689524      19683               2199 
   1381000   1998.7805      185837.72     -193481.2       13095.651     -180385.54      1.4689524      19683               2199 
   1381500   2008.8849      187270.3      -193334.54      13161.853     -180172.69      1.4689524      19683               2199 
   1382000   2048.5521      187472.43     -193314         13421.746     -179892.26      1.4689524      19683               2199 
   1382500   2081.8635      192697.52     -193377.11      13639.996     -179737.11      1.4689524      19683               2199 
   1383000   2085.3146      195772.31     -193429.98      13662.607     -179767.38      1.4689524      19683               2199 
   1383500   1982.4759      191096.65     -193057.59      12988.826     -180068.77      1.4689524      19683               2199 
   1384000   1983.2944      187778.42     -193343.31      12994.189     -180349.12      1.4689524      19683               2199 
   1384500   1963.0191      189281.26     -193349.49      12861.349     -180488.14      1.4689524      19683               2199 
   1385000   1998.8422      177983.44     -193643.04      13096.055     -180546.98      1.4689524      19683               2199 
   1385500   1959.6304      182087.76     -193401.02      12839.147     -180561.87      1.4689524      19683               2199 
   1386000   1961.7538      193771.13     -193388.89      12853.059     -180535.83      1.4689524      19683               2199 
   1386500   1972.3732      196296.93     -193374.22      12922.635     -180451.59      1.4689524      19683               2199 
   1387000   2043.728       179514.48     -193679.42      13390.139     -180289.28      1.4689524      19683               2199 
   1387500   2001.1705      183291.31     -193158.75      13111.31      -180047.44      1.4689524      19683               2199 
   1388000   2031.9579      188507.69     -193139.1       13313.023     -179826.08      1.4689524      19683               2199 
   1388500   2027.6123      206631.82     -193050.12      13284.552     -179765.57      1.4689524      19683               2199 
   1389000   2040.8959      198904.95     -193296.32      13371.584     -179924.74      1.4689524      19683               2199 
   1389500   2024.2044      195005.53     -193548.23      13262.224     -180286         1.4689524      19683               2199 
   1390000   1985.8372      189750.83     -193511.77      13010.849     -180500.92      1.4689524      19683               2199 
   1390500   1948.6713      192727.87     -193309.64      12767.345     -180542.3       1.4689524      19683               2199 
   1391000   2034.4748      188175.36     -193824.33      13329.514     -180494.81      1.4689524      19683               2199 
   1391500   2009.9135      194705.25     -193586.14      13168.592     -180417.55      1.4689524      19683               2199 
   1392000   1995.9445      184898.7      -193372.8       13077.07      -180295.73      1.4689524      19683               2199 
   1392500   2008.3613      188646.77     -193302.89      13158.423     -180144.46      1.4689524      19683               2199 
   1393000   2003.9725      195772.88     -193087.47      13129.668     -179957.8       1.4689524      19683               2199 
   1393500   2058.873       196155.95     -193327.05      13489.366     -179837.68      1.4689524      19683               2199 
   1394000   2069.5794      190273.03     -193455.24      13559.512     -179895.73      1.4689524      19683               2199 
   1394500   2040.3111      180239.07     -193564.14      13367.752     -180196.39      1.4689524      19683               2199 
   1395000   1978.0658      186391.38     -193503.61      12959.932     -180543.68      1.4689524      19683               2199 
   1395500   1957.6462      192026.48     -193489.31      12826.147     -180663.16      1.4689524      19683               2199 
   1396000   1995.013       176557.69     -193707.29      13070.967     -180636.32      1.4689524      19683               2199 
   1396500   1983.7951      184273.63     -193552.81      12997.469     -180555.34      1.4689524      19683               2199 
   1397000   1964.2142      188287.48     -193278.53      12869.179     -180409.35      1.4689524      19683               2199 
   1397500   1971.839       198535.57     -193161.25      12919.135     -180242.11      1.4689524      19683               2199 
   1398000   1988.0144      196728.32     -193134.74      13025.114     -180109.63      1.4689524      19683               2199 
   1398500   2049.0537      195961.59     -193420.54      13425.032     -179995.5       1.4689524      19683               2199 
   1399000   2005.7087      194769.4      -193106.77      13141.044     -179965.73      1.4689524      19683               2199 
   1399500   2039.7259      184376.26     -193458.26      13363.918     -180094.35      1.4689524      19683               2199 
   1400000   2022.1175      193562        -193640.77      13248.551     -180392.22      1.4689524      19683               2199 
   1400500   2025.7555      190188.53     -193936.47      13272.386     -180664.08      1.4689524      19683               2199 
   1401000   1952.2035      186371.61     -193618.51      12790.487     -180828.02      1.4689524      19683               2199 
   1401500   1977.6881      187892.08     -193821.51      12957.457     -180864.05      1.4689524      19683               2199 
   1402000   1966.0034      174364.09     -193671.58      12880.902     -180790.68      1.4689524      19683               2199 
   1402500   2036.4375      181325.83     -193937.46      13342.373     -180595.09      1.4689524      19683               2199 
   1403000   1969.572       194470.96     -193258.01      12904.282     -180353.72      1.4689524      19683               2199 
   1403500   1987.3862      193120.82     -193169.86      13020.998     -180148.86      1.4689524      19683               2199 
   1404000   2004.6213      189702.22     -193165.49      13133.919     -180031.57      1.4689524      19683               2199 
   1404500   2019.9076      189523.06     -193250.57      13234.072     -180016.5       1.4689524      19683               2199 
   1405000   2023.0574      191273.42     -193302.77      13254.709     -180048.06      1.4689524      19683               2199 
   1405500   2011.4671      187372.34     -193312.25      13178.772     -180133.48      1.4689524      19683               2199 
   1406000   2022.7637      198987.76     -193510.89      13252.785     -180258.11      1.4689524      19683               2199 
   1406500   2034.5793      187936.23     -193673.8       13330.199     -180343.6       1.4689524      19683               2199 
   1407000   1998.6201      187475.51     -193581.89      13094.6       -180487.29      1.4689524      19683               2199 
   1407500   1963.3037      192556.28     -193460.45      12863.213     -180597.23      1.4689524      19683               2199 
   1408000   1997.9342      186734.11     -193707.86      13090.106     -180617.75      1.4689524      19683               2199 
   1408500   1983.177       179800.17     -193557.52      12993.419     -180564.11      1.4689524      19683               2199 
   1409000   2020.3721      182661.64     -193734.72      13237.115     -180497.6       1.4689524      19683               2199 
   1409500   2011.5497      189985.89     -193638.68      13179.312     -180459.37      1.4689524      19683               2199 
   1410000   2033.5617      187629.32     -193771.94      13323.531     -180448.41      1.4689524      19683               2199 
   1410500   1991.8687      175671.23     -193501.6       13050.366     -180451.23      1.4689524      19683               2199 
   1411000   2041.1152      187796.24     -193821.54      13373.02      -180448.52      1.4689524      19683               2199 
   1411500   1992.3731      188872.7      -193520.03      13053.671     -180466.36      1.4689524      19683               2199 
   1412000   2015.5276      195470.31     -193706.47      13205.375     -180501.1       1.4689524      19683               2199 
   1412500   2012.8136      188041.35     -193666.16      13187.593     -180478.57      1.4689524      19683               2199 
   1413000   2000.9772      183968.06     -193528.26      13110.043     -180418.22      1.4689524      19683               2199 
   1413500   2022.1113      198602.02     -193579.61      13248.511     -180331.1       1.4689524      19683               2199 
   1414000   2012.7519      194818.35     -193449.04      13187.189     -180261.85      1.4689524      19683               2199 
   1414500   2079.0675      194784.5      -193806.71      13621.677     -180185.03      1.4689524      19683               2199 
   1415000   2005.7136      191655.22     -193353.63      13141.075     -180212.55      1.4689524      19683               2199 
   1415500   2009.1928      199409.68     -193494.62      13163.871     -180330.75      1.4689524      19683               2199 
   1416000   1990.2654      188725.45     -193542.44      13039.862     -180502.58      1.4689524      19683               2199 
   1416500   1993.8459      191319.79     -193804.05      13063.321     -180740.73      1.4689524      19683               2199 
   1417000   1989.033       198423.24     -193898.61      13031.787     -180866.83      1.4689524      19683               2199 
   1417500   1961.9746      182721.86     -193770.12      12854.506     -180915.62      1.4689524      19683               2199 
   1418000   1942.2766      190916.72     -193597.5       12725.447     -180872.05      1.4689524      19683               2199 
   1418500   2009.3982      192429.95     -193894.98      13165.216     -180729.77      1.4689524      19683               2199 
   1419000   2012.7695      201284.25     -193617.33      13187.305     -180430.03      1.4689524      19683               2199 
   1419500   2059.5813      191208.2      -193533.95      13494.007     -180039.94      1.4689524      19683               2199 
   1420000   2059.6819      197269.92     -193399.89      13494.666     -179905.23      1.4689524      19683               2199 
   1420500   2025.7252      195348.85     -193211.1       13272.188     -179938.91      1.4689524      19683               2199 
   1421000   1988.3072      206211.91     -193137.15      13027.032     -180110.12      1.4689524      19683               2199 
   1421500   2013.6064      188280.06     -193552.34      13192.788     -180359.55      1.4689524      19683               2199 
   1422000   1992.6784      190248.25     -193586.3       13055.671     -180530.63      1.4689524      19683               2199 
   1422500   1963.1365      192562.23     -193487.08      12862.118     -180624.96      1.4689524      19683               2199 
   1423000   1957.0257      185060.84     -193533.07      12822.081     -180710.99      1.4689524      19683               2199 
   1423500   2003.0492      187731.25     -193905.7       13123.619     -180782.08      1.4689524      19683               2199 
   1424000   1981.5418      189497.66     -193812.21      12982.706     -180829.5       1.4689524      19683               2199 
   1424500   1941.9406      189531.34     -193568.8       12723.246     -180845.55      1.4689524      19683               2199 
   1425000   1975.8076      195629.72     -193637.58      12945.136     -180692.45      1.4689524      19683               2199 
   1425500   2020.7894      186042.37     -193583.26      13239.849     -180343.41      1.4689524      19683               2199 
   1426000   2058.7631      187495.56     -193508.17      13488.646     -180019.53      1.4689524      19683               2199 
   1426500   2041.2503      193725.85     -193304.66      13373.905     -179930.76      1.4689524      19683               2199 
   1427000   2021.9664      188449.1      -193247.01      13247.561     -179999.45      1.4689524      19683               2199 
   1427500   2030.2737      189999.83     -193511.89      13301.989     -180209.9       1.4689524      19683               2199 
   1428000   1991.7293      184984.64     -193481.05      13049.453     -180431.6       1.4689524      19683               2199 
   1428500   2018.5246      190865.65     -193734.7       13225.011     -180509.69      1.4689524      19683               2199 
   1429000   1969.4739      183199.97     -193464.5       12903.639     -180560.87      1.4689524      19683               2199 
   1429500   2006.8974      186363.95     -193675.24      13148.831     -180526.41      1.4689524      19683               2199 
   1430000   2010.6324      190895.14     -193668.17      13173.302     -180494.87      1.4689524      19683               2199 
   1430500   2023.6308      187422.45     -193666.16      13258.466     -180407.69      1.4689524      19683               2199 
   1431000   2003.7566      190900.26     -193416.53      13128.254     -180288.27      1.4689524      19683               2199 
   1431500   1989.6445      196308        -193135.46      13035.793     -180099.67      1.4689524      19683               2199 
   1432000   2072.8909      196670.17     -193430         13581.209     -179848.79      1.4689524      19683               2199 
   1432500   2058.8135      191081.74     -193282         13488.976     -179793.02      1.4689524      19683               2199 
   1433000   2024.9012      198587.39     -193217.71      13266.789     -179950.92      1.4689524      19683               2199 
   1433500   2001.2361      190371.68     -193343.71      13111.74      -180231.97      1.4689524      19683               2199 
   1434000   2008.0183      188943.75     -193600.21      13156.175     -180444.03      1.4689524      19683               2199 
   1434500   2000.8264      193555.62     -193677.11      13109.055     -180568.05      1.4689524      19683               2199 
   1435000   1993.753       189391.73     -193672.05      13062.712     -180609.34      1.4689524      19683               2199 
   1435500   2017.0525      192863.87     -193843.47      13215.366     -180628.11      1.4689524      19683               2199 
   1436000   1999.4553      181971.66     -193714.23      13100.072     -180614.16      1.4689524      19683               2199 
   1436500   1975.0176      184249.56     -193492.39      12939.961     -180552.43      1.4689524      19683               2199 
   1437000   2068.1021      184642.57     -193959.39      13549.834     -180409.55      1.4689524      19683               2199 
   1437500   2046.2427      188136.53     -193577.04      13406.615     -180170.43      1.4689524      19683               2199 
   1438000   2045.1802      194263.5      -193353.38      13399.653     -179953.73      1.4689524      19683               2199 
   1438500   2076.971       187054.12     -193459.83      13607.941     -179851.89      1.4689524      19683               2199 
   1439000   2028.9413      196143.9      -193230.41      13293.259     -179937.15      1.4689524      19683               2199 
   1439500   2045.9829      193312.71     -193606.65      13404.912     -180201.74      1.4689524      19683               2199 
   1440000   1989.4203      181519.18     -193536.54      13034.325     -180502.21      1.4689524      19683               2199 
   1440500   2004.8015      185704.34     -193747.89      13135.099     -180612.79      1.4689524      19683               2199 
   1441000   2021.7431      178192.16     -193874.99      13246.098     -180628.89      1.4689524      19683               2199 
   1441500   1986.9144      194932.01     -193639.76      13017.907     -180621.85      1.4689524      19683               2199 
   1442000   1969.3945      198550.8      -193515.88      12903.119     -180612.76      1.4689524      19683               2199 
   1442500   1984.8704      186643.67     -193578.24      13004.515     -180573.72      1.4689524      19683               2199 
   1443000   2031.6243      193494.22     -193808.28      13310.838     -180497.44      1.4689524      19683               2199 
   1443500   1999.2755      187222.76     -193429.28      13098.894     -180330.39      1.4689524      19683               2199 
   1444000   2078.962       191127.72     -193650.08      13620.986     -180029.09      1.4689524      19683               2199 
   1444500   2096.522       193670.61     -193604.73      13736.036     -179868.69      1.4689524      19683               2199 
   1445000   2049.331       186406.99     -193328.83      13426.849     -179901.98      1.4689524      19683               2199 
   1445500   2027.4483      191273.61     -193432.94      13283.477     -180149.46      1.4689524      19683               2199 
   1446000   1999.3711      190495.45     -193551.12      13099.521     -180451.6       1.4689524      19683               2199 
   1446500   2018.5858      187318.05     -193793.98      13225.412     -180568.57      1.4689524      19683               2199 
   1447000   1998.1664      191906.26     -193688.85      13091.628     -180597.22      1.4689524      19683               2199 
   1447500   2008.2098      189677.94     -193781.11      13157.43      -180623.68      1.4689524      19683               2199 
   1448000   2005.3923      193859.31     -193743.59      13138.97      -180604.62      1.4689524      19683               2199 
   1448500   2025.023       176375.73     -193818.49      13267.587     -180550.9       1.4689524      19683               2199 
   1449000   2047.8381      190604.46     -193879.32      13417.068     -180462.25      1.4689524      19683               2199 
   1449500   2011.6843      191872.98     -193474.34      13180.194     -180294.14      1.4689524      19683               2199 
   1450000   2048.7917      189836.33     -193461.99      13423.316     -180038.67      1.4689524      19683               2199 
   1450500   2100.844       193857.89     -193645.66      13764.353     -179881.31      1.4689524      19683               2199 
   1451000   2036.0893      195159        -193172.97      13340.091     -179832.88      1.4689524      19683               2199 
   1451500   2016.5358      207757.38     -193120.95      13211.981     -179908.97      1.4689524      19683               2199 
   1452000   2052.4151      185167.91     -193606.2       13447.055     -180159.14      1.4689524      19683               2199 
   1452500   1999.4175      190231.88     -193663.96      13099.824     -180564.13      1.4689524      19683               2199 
   1453000   1968.6994      182062.7      -193618.99      12898.565     -180720.42      1.4689524      19683               2199 
   1453500   1957.8808      188444.06     -193528.72      12827.684     -180701.04      1.4689524      19683               2199 
   1454000   1967.6362      185955.79     -193471.96      12891.599     -180580.36      1.4689524      19683               2199 
   1454500   2025.8652      194346.21     -193626.28      13273.105     -180353.17      1.4689524      19683               2199 
   1455000   2020.8981      199845.35     -193440.46      13240.562     -180199.9       1.4689524      19683               2199 
   1455500   2028.2237      192934.63     -193381.9       13288.557     -180093.34      1.4689524      19683               2199 
   1456000   2003.6815      203067.69     -193261.43      13127.762     -180133.67      1.4689524      19683               2199 
   1456500   2019.3451      188942.4      -193537.65      13230.387     -180307.27      1.4689524      19683               2199 
   1457000   1982.6958      190977.28     -193679.93      12990.267     -180689.67      1.4689524      19683               2199 
   1457500   1976.8681      189524.28     -193872.86      12952.085     -180920.77      1.4689524      19683               2199 
   1458000   1984.0274      189585.74     -193907.59      12998.991     -180908.6       1.4689524      19683               2199 
   1458500   1977.9296      184077.83     -193780.03      12959.039     -180820.99      1.4689524      19683               2199 
   1459000   1975.7694      185432.32     -193642.13      12944.887     -180697.25      1.4689524      19683               2199 
   1459500   1981.5193      192764.92     -193502.55      12982.559     -180519.99      1.4689524      19683               2199 
   1460000   2029.0055      192902.35     -193636.33      13293.68      -180342.65      1.4689524      19683               2199 
   1460500   2042.3631      194504.65     -193603.57      13381.196     -180222.38      1.4689524      19683               2199 
   1461000   2010.9893      190903.39     -193329.07      13175.641     -180153.43      1.4689524      19683               2199 
   1461500   2045.9727      196660.47     -193578.95      13404.846     -180174.1       1.4689524      19683               2199 
   1462000   2069.4691      190066.39     -193960.49      13558.79      -180401.7       1.4689524      19683               2199 
   1462500   1978.9887      190999.69     -193765.36      12965.979     -180799.38      1.4689524      19683               2199 
   1463000   1936.2585      185100.49     -193644.36      12686.018     -180958.34      1.4689524      19683               2199 
   1463500   1963.3074      191149.22     -193799.04      12863.238     -180935.8       1.4689524      19683               2199 
   1464000   2001.1342      193774.77     -193923.23      13111.072     -180812.15      1.4689524      19683               2199 
   1464500   2002.9524      197379.5      -193746.27      13122.985     -180623.28      1.4689524      19683               2199 
   1465000   1974.4955      195589.49     -193354.55      12936.54      -180418.01      1.4689524      19683               2199 
   1465500   2029.206       193094.77     -193529.55      13294.993     -180234.56      1.4689524      19683               2199 
   1466000   2036.5388      193817.25     -193524.21      13343.037     -180181.17      1.4689524      19683               2199 
   1466500   2015.5808      193495.41     -193470.98      13205.724     -180265.25      1.4689524      19683               2199 
   1467000   1979.5963      183146.6      -193447.94      12969.959     -180477.98      1.4689524      19683               2199 
   1467500   1997.8795      188111.88     -193954.03      13089.748     -180864.29      1.4689524      19683               2199 
   1468000   1922.0192      187917.18     -193683.3       12592.725     -181090.58      1.4689524      19683               2199 
   1468500   1955.7753      187560.01     -193887.09      12813.888     -181073.2       1.4689524      19683               2199 
   1469000   1976.5571      186385.85     -193930.85      12950.047     -180980.8       1.4689524      19683               2199 
   1469500   1979.5755      179928.2      -193821.99      12969.823     -180852.17      1.4689524      19683               2199 
   1470000   2006.6795      179753.14     -193802.21      13147.404     -180654.81      1.4689524      19683               2199 
   1470500   2012.158       195893.19     -193623.37      13183.298     -180440.07      1.4689524      19683               2199 
   1471000   2015.9073      197521.82     -193496.35      13207.863     -180288.49      1.4689524      19683               2199 
   1471500   2026.1007      183750.73     -193473.53      13274.648     -180198.88      1.4689524      19683               2199 
   1472000   2045.3787      194249.8      -193574.42      13400.954     -180173.46      1.4689524      19683               2199 
   1472500   2000.6253      196393.98     -193301.08      13107.738     -180193.34      1.4689524      19683               2199 
   1473000   1994.3311      182660.18     -193374.75      13066.499     -180308.25      1.4689524      19683               2199 
   1473500   2031.9635      181153.24     -193727.01      13313.06      -180413.95      1.4689524      19683               2199 
   1474000   2021.3705      186512.08     -193737.48      13243.657     -180493.82      1.4689524      19683               2199 
   1474500   1977.0198      204232.91     -193505.1       12953.079     -180552.02      1.4689524      19683               2199 
   1475000   2027.7326      176671.55     -194069.09      13285.34      -180783.75      1.4689524      19683               2199 
   1475500   1919.0584      183872.66     -193817.06      12573.326     -181243.73      1.4689524      19683               2199 
   1476000   1903.1069      185382.45     -193817.19      12468.815     -181348.38      1.4689524      19683               2199 
   1476500   1923.4985      183755.17     -193816.08      12602.417     -181213.66      1.4689524      19683               2199 
   1477000   1949.1163      183974.02     -193697.73      12770.26      -180927.47      1.4689524      19683               2199 
   1477500   1951.7923      181504.83     -193420.36      12787.793     -180632.57      1.4689524      19683               2199 
   1478000   1962.5434      189902.39     -193264.67      12858.232     -180406.44      1.4689524      19683               2199 
   1478500   2009.8102      196454.19     -193392.89      13167.915     -180224.98      1.4689524      19683               2199 
   1479000   1991.9466      196752.71     -193172.3       13050.877     -180121.43      1.4689524      19683               2199 
   1479500   2026.4182      187510.31     -193325.93      13276.728     -180049.2       1.4689524      19683               2199 
   1480000   2039.8258      197966.92     -193428.77      13364.572     -180064.2       1.4689524      19683               2199 
   1480500   2042.2301      191283.58     -193602.24      13380.325     -180221.92      1.4689524      19683               2199 
   1481000   1974.3137      193628.58     -193470.78      12935.349     -180535.43      1.4689524      19683               2199 
   1481500   1955.0958      196404.69     -193544.99      12809.437     -180735.55      1.4689524      19683               2199 
   1482000   1951.783       195452.49     -193576.4       12787.732     -180788.67      1.4689524      19683               2199 
   1482500   1983.8226      190364.24     -193754.35      12997.65      -180756.7       1.4689524      19683               2199 
   1483000   2004.7997      194529.62     -193798.52      13135.088     -180663.44      1.4689524      19683               2199 
   1483500   1992.0704      186453.14     -193640.59      13051.688     -180588.9       1.4689524      19683               2199 
   1484000   1963.343       186450.07     -193383.94      12863.471     -180520.47      1.4689524      19683               2199 
   1484500   2008.3047      185333.63     -193533.48      13158.052     -180375.43      1.4689524      19683               2199 
   1485000   1993.6401      196420.99     -193248.96      13061.972     -180186.99      1.4689524      19683               2199 
   1485500   2061.1267      192062.01     -193400.56      13504.132     -179896.43      1.4689524      19683               2199 
   1486000   2111.6863      188090.46     -193320.21      13835.39      -179484.82      1.4689524      19683               2199 
   1486500   2111.121       183600.66     -193116.96      13831.686     -179285.27      1.4689524      19683               2199 
   1487000   2096.6089      199912.86     -193188.82      13736.605     -179452.21      1.4689524      19683               2199 
   1487500   2044.8305      202282.66     -193089.6       13397.362     -179692.24      1.4689524      19683               2199 
   1488000   2056.1948      193628.69     -193359.36      13471.819     -179887.54      1.4689524      19683               2199 
   1488500   2045.7211      189173.95     -193488.12      13403.197     -180084.92      1.4689524      19683               2199 
   1489000   1983.0802      183434.18     -193316.98      12992.786     -180324.19      1.4689524      19683               2199 
   1489500   2002.7082      190084.38     -193619.02      13121.385     -180497.64      1.4689524      19683               2199 
   1490000   2004.2327      190416.99     -193717.99      13131.373     -180586.62      1.4689524      19683               2199 
   1490500   1979.2114      199025.16     -193641.43      12967.438     -180673.99      1.4689524      19683               2199 
   1491000   1985.8431      194092.77     -193691.39      13010.887     -180680.5       1.4689524      19683               2199 
   1491500   1992.2838      190862.48     -193705.5       13053.086     -180652.42      1.4689524      19683               2199 
   1492000   1928.43        181901.17     -193217.07      12634.727     -180582.34      1.4689524      19683               2199 
   1492500   2006.3984      193278.77     -193561.39      13145.562     -180415.83      1.4689524      19683               2199 
   1493000   2018.3914      191204.65     -193416.37      13224.138     -180192.23      1.4689524      19683               2199 
   1493500   2086.7303      182679.2      -193677.51      13671.882     -180005.63      1.4689524      19683               2199 
   1494000   2020.8731      199054.3      -193231.91      13240.398     -179991.51      1.4689524      19683               2199 
   1494500   2030.475       192687.19     -193444.45      13303.308     -180141.14      1.4689524      19683               2199 
   1495000   2033.8682      191317.15     -193742.07      13325.539     -180416.53      1.4689524      19683               2199 
   1495500   1971.5251      178729.22     -193567.64      12917.079     -180650.56      1.4689524      19683               2199 
   1496000   2012.5604      182795.02     -193924.68      13185.935     -180738.74      1.4689524      19683               2199 
   1496500   1930.3889      192711.6      -193365.86      12647.561     -180718.29      1.4689524      19683               2199 
   1497000   2009.7768      187580.08     -193813.13      13167.697     -180645.44      1.4689524      19683               2199 
   1497500   1950.4549      188558.78     -193358         12779.03      -180578.97      1.4689524      19683               2199 
   1498000   1995.7704      187527.65     -193567.8       13075.93      -180491.87      1.4689524      19683               2199 
   1498500   1983.7411      192508.01     -193372.92      12997.115     -180375.8       1.4689524      19683               2199 
   1499000   1955.7823      189294.74     -193022.51      12813.935     -180208.57      1.4689524      19683               2199 
   1499500   2034.1838      206700.01     -193247.31      13327.607     -179919.71      1.4689524      19683               2199 
   1500000   2052.2184      187594        -193116.7       13445.766     -179670.93      1.4689524      19683               2199 
   1500500   2056.152       206363.25     -193132.43      13471.539     -179660.89      1.4689524      19683               2199 
   1501000   2061.8739      183330.25     -193405.16      13509.028     -179896.13      1.4689524      19683               2199 
   1501500   2028.553       191938.54     -193548.55      13290.715     -180257.84      1.4689524      19683               2199 
   1502000   1967.7875      190307.33     -193297.93      12892.591     -180405.34      1.4689524      19683               2199 
   1502500   2015.2445      199329.17     -193679.99      13203.52      -180476.47      1.4689524      19683               2199 
   1503000   2015.8753      199166.06     -193785.85      13207.653     -180578.2       1.4689524      19683               2199 
   1503500   1967.3547      197022.43     -193575.69      12889.755     -180685.94      1.4689524      19683               2199 
   1504000   2009.5729      193634.89     -193883.35      13166.361     -180716.99      1.4689524      19683               2199 
   1504500   1986.5623      188556.23     -193701.77      13015.6       -180686.17      1.4689524      19683               2199 
   1505000   1983.7369      186100.17     -193581.28      12997.088     -180584.19      1.4689524      19683               2199 
   1505500   2036.6016      193935.88     -193744.14      13343.448     -180400.69      1.4689524      19683               2199 
   1506000   2049.1907      188351.98     -193598.7       13425.93      -180172.77      1.4689524      19683               2199 
   1506500   2038.3811      194629.37     -193390.87      13355.107     -180035.76      1.4689524      19683               2199 
   1507000   2049.9884      183761.23     -193430.04      13431.156     -179998.89      1.4689524      19683               2199 
   1507500   2081.8217      185195.69     -193761.76      13639.722     -180122.04      1.4689524      19683               2199 
   1508000   1999.2534      201802.73     -193562.23      13098.749     -180463.49      1.4689524      19683               2199 
   1508500   1972.1162      188167.61     -193616.11      12920.951     -180695.16      1.4689524      19683               2199 
   1509000   1945.277       190469.06     -193519.13      12745.106     -180774.02      1.4689524      19683               2199 
   1509500   1991.9983      190373.83     -193771.08      13051.215     -180719.86      1.4689524      19683               2199 
   1510000   1998.5319      189782.7      -193715.77      13094.023     -180621.75      1.4689524      19683               2199 
   1510500   2008.6993      191931.93     -193686.72      13160.637     -180526.09      1.4689524      19683               2199 
   1511000   2009.3963      192661.96     -193562.36      13165.204     -180397.16      1.4689524      19683               2199 
   1511500   1994.4302      192311.65     -193261.41      13067.149     -180194.26      1.4689524      19683               2199 
   1512000   2022.2414      198060.03     -193157.8       13249.363     -179908.44      1.4689524      19683               2199 
   1512500   2072.1137      191521.51     -193227.57      13576.117     -179651.45      1.4689524      19683               2199 
   1513000   2041.4032      198335.95     -192949.13      13374.907     -179574.23      1.4689524      19683               2199 
   1513500   2080.6288      204116.42     -193448.96      13631.906     -179817.05      1.4689524      19683               2199 
   1514000   2030.6416      186575.57     -193542.47      13304.4       -180238.07      1.4689524      19683               2199 
   1514500   1978.8274      196195.28     -193378.06      12964.922     -180413.14      1.4689524      19683               2199 
   1515000   1987.4679      193664.26     -193517.03      13021.533     -180495.49      1.4689524      19683               2199 
   1515500   1985.7042      194116.83     -193562.74      13009.977     -180552.77      1.4689524      19683               2199 
   1516000   1974.2986      190546.39     -193565.44      12935.25      -180630.19      1.4689524      19683               2199 
   1516500   2016.2418      190039.01     -193871.24      13210.054     -180661.18      1.4689524      19683               2199 
   1517000   1982.726       185519.79     -193673.79      12990.465     -180683.33      1.4689524      19683               2199 
   1517500   1959.1929      182455.35     -193456.32      12836.28      -180620.04      1.4689524      19683               2199 
   1518000   1982.1969      187839.11     -193424.96      12986.999     -180437.96      1.4689524      19683               2199 
   1518500   1970.8189      195819.69     -193098.06      12912.452     -180185.61      1.4689524      19683               2199 
   1519000   2050.7096      186433.24     -193432.53      13435.881     -179996.65      1.4689524      19683               2199 
   1519500   2036.2371      189788.42     -193331.71      13341.06      -179990.65      1.4689524      19683               2199 
   1520000   2076.7126      183836.34     -193755.56      13606.248     -180149.31      1.4689524      19683               2199 
   1520500   1998.8427      182884.02     -193597.11      13096.059     -180501.05      1.4689524      19683               2199 
   1521000   2002.8448      188168.63     -193828.43      13122.28      -180706.16      1.4689524      19683               2199 
   1521500   1996.035       184205        -193813.98      13077.663     -180736.32      1.4689524      19683               2199 
   1522000   1940.4886      200947.48     -193435.49      12713.733     -180721.76      1.4689524      19683               2199 
   1522500   1995.3512      200209.96     -193706.13      13073.183     -180632.94      1.4689524      19683               2199 
   1523000   2012.7196      187183.5      -193723.34      13186.977     -180536.36      1.4689524      19683               2199 
   1523500   1989.4927      196015.84     -193488.16      13034.799     -180453.36      1.4689524      19683               2199 
   1524000   2014.2266      190541.57     -193574.06      13196.851     -180377.21      1.4689524      19683               2199 
   1524500   2011.5325      204019.79     -193450.01      13179.2       -180270.81      1.4689524      19683               2199 
   1525000   2011.4487      199321.74     -193326.51      13178.651     -180147.86      1.4689524      19683               2199 
   1525500   2068.7297      195402.38     -193590.89      13553.946     -180036.94      1.4689524      19683               2199 
   1526000   2024.5329      182562.27     -193279.76      13264.376     -180015.38      1.4689524      19683               2199 
   1526500   2062.0228      189453.64     -193595.04      13510.003     -180085.04      1.4689524      19683               2199 
   1527000   2044.1599      185559.73     -193698.27      13392.969     -180305.3       1.4689524      19683               2199 
   1527500   1996.3527      188929.76     -193652.78      13079.744     -180573.04      1.4689524      19683               2199 
   1528000   1966.704       186115.86     -193632.93      12885.492     -180747.44      1.4689524      19683               2199 
   1528500   1969.2764      178995.79     -193697.96      12902.345     -180795.61      1.4689524      19683               2199 
   1529000   1992.661       184450.8      -193825.45      13055.557     -180769.89      1.4689524      19683               2199 
   1529500   2000.9726      188069.54     -193789.8       13110.013     -180679.78      1.4689524      19683               2199 
   1530000   1983.8864      189025.68     -193539.01      12998.067     -180540.94      1.4689524      19683               2199 
   1530500   2014.2745      191497.25     -193511.38      13197.165     -180314.21      1.4689524      19683               2199 
   1531000   2024.2854      201462.54     -193262.48      13262.754     -179999.73      1.4689524      19683               2199 
   1531500   2033.942       193444.01     -193062.09      13326.023     -179736.07      1.4689524      19683               2199 
   1532000   2085.569       198768.37     -193344.51      13664.274     -179680.23      1.4689524      19683               2199 
   1532500   2019.3225      191598.39     -193099.68      13230.239     -179869.44      1.4689524      19683               2199 
   1533000   2024.033       200899.1      -193304.7       13261.101     -180043.6       1.4689524      19683               2199 
   1533500   2000.7118      198462.26     -193256.68      13108.305     -180148.37      1.4689524      19683               2199 
   1534000   2000.6872      189795.36     -193326.76      13108.143     -180218.62      1.4689524      19683               2199 
   1534500   2044.706       189136.22     -193711.56      13396.547     -180315.01      1.4689524      19683               2199 
   1535000   2000.3921      193248        -193561.09      13106.21      -180454.88      1.4689524      19683               2199 
   1535500   1985.4751      191827.59     -193589.74      13008.476     -180581.26      1.4689524      19683               2199 
   1536000   2021.368       194638.42     -193907.83      13243.64      -180664.19      1.4689524      19683               2199 
   1536500   1954.0275      194005.54     -193543.65      12802.437     -180741.21      1.4689524      19683               2199 
   1537000   1974.7621      191410.91     -193744.79      12938.287     -180806.5       1.4689524      19683               2199 
   1537500   1997.2783      198946.88     -193907.09      13085.809     -180821.28      1.4689524      19683               2199 
   1538000   1970.763       179060.93     -193639.29      12912.085     -180727.21      1.4689524      19683               2199 
   1538500   2003.8953      186424.88     -193601.78      13129.163     -180472.62      1.4689524      19683               2199 
   1539000   2034.2508      185780.54     -193530.36      13328.046     -180202.32      1.4689524      19683               2199 
   1539500   2046.0301      199266.01     -193430.45      13405.222     -180025.22      1.4689524      19683               2199 
   1540000   2014.8643      197749.63     -193229.72      13201.029     -180028.69      1.4689524      19683               2199 
   1540500   2024.5811      199701.33     -193403.26      13264.692     -180138.57      1.4689524      19683               2199 
   1541000   2045.9487      192498.89     -193788.74      13404.689     -180384.05      1.4689524      19683               2199 
   1541500   1980.9016      192491.45     -193584.23      12978.511     -180605.72      1.4689524      19683               2199 
   1542000   2002.0277      192419.64     -193809.85      13116.926     -180692.92      1.4689524      19683               2199 
   1542500   1972.0672      197637.36     -193623.47      12920.63      -180702.84      1.4689524      19683               2199 
   1543000   1993.1669      197875.57     -193736.66      13058.871     -180677.79      1.4689524      19683               2199 
   1543500   2012.5051      195880.22     -193848.54      13185.572     -180662.97      1.4689524      19683               2199 
   1544000   1964.1915      195662.64     -193488.36      12869.03      -180619.33      1.4689524      19683               2199 
   1544500   2009.0402      194860.99     -193694.68      13162.871     -180531.81      1.4689524      19683               2199 
   1545000   2047.0876      200919.04     -193778.38      13412.151     -180366.23      1.4689524      19683               2199 
   1545500   2060.2104      181133.45     -193632.24      13498.129     -180134.11      1.4689524      19683               2199 
   1546000   2040.6762      192236.01     -193365.36      13370.144     -179995.22      1.4689524      19683               2199 
   1546500   2050.7466      193377.4      -193433.97      13436.123     -179997.85      1.4689524      19683               2199 
   1547000   2022.9253      187589.13     -193443.44      13253.844     -180189.6       1.4689524      19683               2199 
   1547500   2015.6808      195863.44     -193708.09      13206.379     -180501.71      1.4689524      19683               2199 
   1548000   2003.4106      194985.31     -193826.57      13125.987     -180700.59      1.4689524      19683               2199 
   1548500   1961.13        195545.28     -193640.27      12848.972     -180791.3       1.4689524      19683               2199 
   1549000   1969.4834      191330.52     -193689.45      12903.701     -180785.74      1.4689524      19683               2199 
   1549500   1970.0474      202028.39     -193660.95      12907.397     -180753.55      1.4689524      19683               2199 
   1550000   1985.622       192811.64     -193706.87      13009.439     -180697.43      1.4689524      19683               2199 
   1550500   2045.0074      189228.51     -194052.81      13398.521     -180654.29      1.4689524      19683               2199 
   1551000   1993.5018      194429.24     -193718.41      13061.066     -180657.35      1.4689524      19683               2199 
   1551500   1983.3861      190053.95     -193656.52      12994.79      -180661.73      1.4689524      19683               2199 
   1552000   2012.267       187835.86     -193847.26      13184.012     -180663.24      1.4689524      19683               2199 
   1552500   1959.6823      192460.71     -193505.64      12839.487     -180666.16      1.4689524      19683               2199 
   1553000   2030.0694      184765.19     -193971.57      13300.65      -180670.92      1.4689524      19683               2199 
   1553500   1963.4308      193269.74     -193517.38      12864.046     -180653.33      1.4689524      19683               2199 
   1554000   2064.6912      187686.58     -194106.52      13527.486     -180579.03      1.4689524      19683               2199 
   1554500   1972.9502      196592.86     -193484.69      12926.416     -180558.28      1.4689524      19683               2199 
   1555000   2054.5676      185929.38     -194053.96      13461.158     -180592.8       1.4689524      19683               2199 
   1555500   1973.6709      194036.5      -193582.44      12931.138     -180651.3       1.4689524      19683               2199 
   1556000   1962.4175      190516.33     -193604         12857.407     -180746.59      1.4689524      19683               2199 
   1556500   2036.6574      194214.2      -194182.2       13343.814     -180838.38      1.4689524      19683               2199 
   1557000   1999.0076      196138.04     -194005.1       13097.139     -180907.96      1.4689524      19683               2199 
   1557500   1980.5529      206308.74     -193916.65      12976.227     -180940.42      1.4689524      19683               2199 
   1558000   1973.1148      194750.98     -193729.27      12927.494     -180801.78      1.4689524      19683               2199 
   1558500   1942.3424      197462.24     -193250.85      12725.879     -180524.97      1.4689524      19683               2199 
   1559000   2042.476       195705.74     -193591.87      13381.936     -180209.93      1.4689524      19683               2199 
   1559500   2001.0471      190078.27     -193210.57      13110.501     -180100.07      1.4689524      19683               2199 
   1560000   2037.4123      193605.01     -193464.21      13348.76      -180115.45      1.4689524      19683               2199 
   1560500   2031.298       186808.32     -193529.25      13308.7       -180220.55      1.4689524      19683               2199 
   1561000   1999.2202      201871.48     -193494.24      13098.532     -180395.71      1.4689524      19683               2199 
   1561500   1947.2321      190481.08     -193369.13      12757.915     -180611.21      1.4689524      19683               2199 
   1562000   1968.9571      187217.63     -193633.85      12900.254     -180733.6       1.4689524      19683               2199 
   1562500   1977.1427      191070.11     -193688.22      12953.884     -180734.34      1.4689524      19683               2199 
   1563000   1952.2981      197381.54     -193457.84      12791.107     -180666.73      1.4689524      19683               2199 
   1563500   1998.7941      186128.79     -193720.33      13095.74      -180624.59      1.4689524      19683               2199 
   1564000   1987.7649      197195.55     -193615.6       13023.479     -180592.12      1.4689524      19683               2199 
   1564500   2011.0202      178593.78     -193747.04      13175.843     -180571.2       1.4689524      19683               2199 
   1565000   1997.3724      198964.08     -193616.36      13086.425     -180529.93      1.4689524      19683               2199 
   1565500   2025.3018      192279.98     -193788.3       13269.414     -180518.89      1.4689524      19683               2199 
   1566000   1991.9227      191180.09     -193561.89      13050.72      -180511.17      1.4689524      19683               2199 
   1566500   2047.5397      184736.49     -193901.4       13415.112     -180486.28      1.4689524      19683               2199 
   1567000   1994.9242      197305.25     -193539.01      13070.386     -180468.62      1.4689524      19683               2199 
   1567500   2028.6596      181462.54     -193730.27      13291.413     -180438.85      1.4689524      19683               2199 
   1568000   1999.7494      184751.27     -193563.6       13101.999     -180461.6       1.4689524      19683               2199 
   1568500   2021.0449      184273.37     -193711.28      13241.524     -180469.76      1.4689524      19683               2199 
   1569000   2003.1563      191813.04     -193660.78      13124.321     -180536.46      1.4689524      19683               2199 
   1569500   2033.6955      191224.44     -193958.38      13324.408     -180633.97      1.4689524      19683               2199 
   1570000   2001.7105      188728.3      -193871.01      13114.848     -180756.17      1.4689524      19683               2199 
   1570500   1949.4874      190285.42     -193626.6       12772.691     -180853.91      1.4689524      19683               2199 
   1571000   2005.3807      181889.25     -194059.57      13138.894     -180920.68      1.4689524      19683               2199 
   1571500   1972.4978      190909.34     -193894.21      12923.452     -180970.76      1.4689524      19683               2199 
   1572000   2010.4666      188295.2      -194091.58      13172.216     -180919.37      1.4689524      19683               2199 
   1572500   2012.9216      188740.7      -193901.13      13188.301     -180712.83      1.4689524      19683               2199 
   1573000   1995.3887      179936.27     -193539.21      13073.428     -180465.78      1.4689524      19683               2199 
   1573500   2016.936       183550.93     -193473.65      13214.603     -180259.05      1.4689524      19683               2199 
   1574000   2033.7215      186415.43     -193489.93      13324.578     -180165.35      1.4689524      19683               2199 
   1574500   2031.8703      183676.04     -193499.71      13312.45      -180187.26      1.4689524      19683               2199 
   1575000   1983.4773      178843.64     -193307.38      12995.387     -180311.99      1.4689524      19683               2199 
   1575500   1955.2034      190646.37     -193393.27      12810.141     -180583.13      1.4689524      19683               2199 
   1576000   1973.0332      189984.04     -193807.78      12926.959     -180880.82      1.4689524      19683               2199 
   1576500   1953.2133      178069.35     -193824.77      12797.103     -181027.67      1.4689524      19683               2199 
   1577000   1976.5122      178995.66     -193939.86      12949.753     -180990.11      1.4689524      19683               2199 
   1577500   1972.2228      191851.36     -193812.69      12921.65      -180891.04      1.4689524      19683               2199 
   1578000   1980.8143      192586.13     -193748.28      12977.94      -180770.34      1.4689524      19683               2199 
   1578500   2021.3162      180086.37     -193913.6       13243.301     -180670.3       1.4689524      19683               2199 
   1579000   1965.0558      193040.49     -193481.4       12874.693     -180606.71      1.4689524      19683               2199 
   1579500   2009.1748      196582.3      -193733.02      13163.753     -180569.27      1.4689524      19683               2199 
   1580000   2012.7416      190548.36     -193742.2       13187.122     -180555.08      1.4689524      19683               2199 
   1580500   2025.3896      188191.14     -193860.22      13269.989     -180590.23      1.4689524      19683               2199 
   1581000   2004.4212      185045.55     -193792.1       13132.608     -180659.49      1.4689524      19683               2199 
   1581500   2006.9644      187818.69     -193966.17      13149.27      -180816.9       1.4689524      19683               2199 
   1582000   1964.8484      184306.18     -193940.49      12873.334     -181067.15      1.4689524      19683               2199 
   1582500   1960.5805      191973.34     -194126.73      12845.371     -181281.36      1.4689524      19683               2199 
   1583000   1957.6574      190121.2      -194181.67      12826.22      -181355.45      1.4689524      19683               2199 
   1583500   1983.6269      180121.43     -194231.31      12996.368     -181234.95      1.4689524      19683               2199 
   1584000   1971.9607      185638.84     -193879.34      12919.932     -180959.4       1.4689524      19683               2199 
   1584500   1986.6895      193533.21     -193686.04      13016.433     -180669.61      1.4689524      19683               2199 
   1585000   2015.5714      194814.37     -193722.32      13205.662     -180516.65      1.4689524      19683               2199 
   1585500   1984.0013      192538.13     -193468.06      12998.82      -180469.24      1.4689524      19683               2199 
   1586000   2038.8534      191817.77     -193845.06      13358.201     -180486.86      1.4689524      19683               2199 
   1586500   1996.5742      193954.97     -193664.8       13081.196     -180583.6       1.4689524      19683               2199 
   1587000   1971.1639      190121.59     -193559.89      12914.712     -180645.18      1.4689524      19683               2199 
   1587500   1979.784       188819.74     -193683.67      12971.189     -180712.48      1.4689524      19683               2199 
   1588000   1993.8237      188512.46     -193843.99      13063.175     -180780.81      1.4689524      19683               2199 
   1588500   2014.5698      184997.76     -194006.05      13199.1       -180806.95      1.4689524      19683               2199 
   1589000   2003.6296      188360.37     -193938.57      13127.421     -180811.15      1.4689524      19683               2199 
   1589500   1978.548       188505.83     -193724.14      12963.091     -180761.05      1.4689524      19683               2199 
   1590000   2010.5148      197910.76     -193759.94      13172.532     -180587.41      1.4689524      19683               2199 
   1590500   2005.1173      193068.07     -193500.69      13137.169     -180363.52      1.4689524      19683               2199 
   1591000   2024.1374      187739.1      -193470.22      13261.785     -180208.44      1.4689524      19683               2199 
   1591500   1990.9663      186502.76     -193192.29      13044.454     -180147.83      1.4689524      19683               2199 
   1592000   2028.1406      188629.72     -193497.53      13288.013     -180209.52      1.4689524      19683               2199 
   1592500   2023.1562      195317.18     -193640.99      13255.356     -180385.63      1.4689524      19683               2199 
   1593000   1972.2898      186006.87     -193598.26      12922.089     -180676.17      1.4689524      19683               2199 
   1593500   1940.6151      188504.09     -193607.06      12714.562     -180892.49      1.4689524      19683               2199 
   1594000   1946.5825      185480.47     -193704.93      12753.659     -180951.27      1.4689524      19683               2199 
   1594500   1969.5839      188726.06     -193777.07      12904.36      -180872.71      1.4689524      19683               2199 
   1595000   1985.2163      189584.83     -193806.67      13006.781     -180799.89      1.4689524      19683               2199 
   1595500   2023.9841      179626.36     -194006.66      13260.781     -180745.88      1.4689524      19683               2199 
   1596000   2022.174       190854.41     -193990.81      13248.921     -180741.89      1.4689524      19683               2199 
   1596500   1974.9983      189981.19     -193664.8       12939.835     -180724.96      1.4689524      19683               2199 
   1597000   1981.4439      200224.09     -193693.99      12982.064     -180711.92      1.4689524      19683               2199 
   1597500   2019.766       191407.32     -193913.8       13233.144     -180680.65      1.4689524      19683               2199 
   1598000   1994.7813      184668.65     -193718.25      13069.449     -180648.8       1.4689524      19683               2199 
   1598500   1973.5367      193822.31     -193567.63      12930.258     -180637.37      1.4689524      19683               2199 
   1599000   2005.5087      188018.63     -193723.62      13139.733     -180583.89      1.4689524      19683               2199 
   1599500   2009.94        187209.69     -193700.2       13168.766     -180531.43      1.4689524      19683               2199 
   1600000   2034.0374      186611.78     -193773.18      13326.648     -180446.54      1.4689524      19683               2199 
   1600500   2009.8924      184530.63     -193541.64      13168.454     -180373.19      1.4689524      19683               2199 
   1601000   1994.3291      193313.18     -193444.86      13066.486     -180378.38      1.4689524      19683               2199 
   1601500   2030.8502      190500.33     -193751.15      13305.766     -180445.39      1.4689524      19683               2199 
   1602000   2017.8218      194762.61     -193821.3       13220.406     -180600.89      1.4689524      19683               2199 
   1602500   2032.9386      196489.31     -194158.82      13319.449     -180839.37      1.4689524      19683               2199 
   1603000   1986.0373      180122.52     -194000.28      13012.16      -180988.12      1.4689524      19683               2199 
   1603500   2005.7193      187948.58     -194179.73      13141.113     -181038.61      1.4689524      19683               2199 
   1604000   1986.0903      196742.86     -194026.23      13012.507     -181013.72      1.4689524      19683               2199 
   1604500   2008.4504      191758.49     -194076.52      13159.007     -180917.52      1.4689524      19683               2199 
   1605000   1973.483       207102.36     -193619.57      12929.906     -180689.66      1.4689524      19683               2199 
   1605500   2031.3459      191829.33     -193575.47      13309.014     -180266.46      1.4689524      19683               2199 
   1606000   2051.2166      191125.68     -193449.56      13439.203     -180010.36      1.4689524      19683               2199 
   1606500   2066.3184      197767.54     -193501.02      13538.147     -179962.87      1.4689524      19683               2199 
   1607000   1953.6547      200827.08     -192792.02      12799.995     -179992.02      1.4689524      19683               2199 
   1607500   1981.5095      188686.47     -193056.37      12982.494     -180073.87      1.4689524      19683               2199 
   1608000   2012.1231      190753.72     -193364.43      13183.069     -180181.36      1.4689524      19683               2199 
   1608500   2024.8242      198008.01     -193627.55      13266.285     -180361.27      1.4689524      19683               2199 
   1609000   1993.6687      185782.9      -193633.25      13062.159     -180571.09      1.4689524      19683               2199 
   1609500   1965.0365      184443.72     -193564.77      12874.567     -180690.2       1.4689524      19683               2199 
   1610000   1997.4467      198146.56     -193780.23      13086.912     -180693.32      1.4689524      19683               2199 
   1610500   1976.208       182320.22     -193593.19      12947.76      -180645.43      1.4689524      19683               2199 
   1611000   1995.6492      187702.37     -193640.32      13075.135     -180565.18      1.4689524      19683               2199 
   1611500   2005.5133      196171.9      -193625.41      13139.763     -180485.64      1.4689524      19683               2199 
   1612000   2007.6993      192984.61     -193574.65      13154.085     -180420.57      1.4689524      19683               2199 
   1612500   2026.7549      194360        -193632.52      13278.934     -180353.59      1.4689524      19683               2199 
   1613000   1981.1276      198616.51     -193260.22      12979.992     -180280.22      1.4689524      19683               2199 
   1613500   2050.2923      182569.17     -193649.12      13433.147     -180215.98      1.4689524      19683               2199 
   1614000   2054.7636      192514.98     -193641.29      13462.442     -180178.85      1.4689524      19683               2199 
   1614500   2037.7618      195643.61     -193638.76      13351.049     -180287.71      1.4689524      19683               2199 
   1615000   2032.4204      191757.06     -193858.1       13316.054     -180542.04      1.4689524      19683               2199 
   1615500   2037.0039      192207.35     -194142.24      13346.084     -180796.15      1.4689524      19683               2199 
   1616000   2040.8631      191214.52     -194296.48      13371.369     -180925.11      1.4689524      19683               2199 
   1616500   1978.8838      195813.45     -193946.59      12965.292     -180981.29      1.4689524      19683               2199 
   1617000   1919.4604      196090.06     -193520.86      12575.96      -180944.9       1.4689524      19683               2199 
   1617500   1993.0512      182976.91     -193819.31      13058.114     -180761.19      1.4689524      19683               2199 
   1618000   2020.4893      183970.52     -193720.69      13237.883     -180482.81      1.4689524      19683               2199 
   1618500   2013.1462      200214.98     -193452.67      13189.772     -180262.9       1.4689524      19683               2199 
   1619000   2052.8488      201160.77     -193643.06      13449.897     -180193.16      1.4689524      19683               2199 
   1619500   2030.1927      193055.13     -193578.39      13301.458     -180276.93      1.4689524      19683               2199 
   1620000   2014.4911      190473.7      -193588.47      13198.584     -180389.89      1.4689524      19683               2199 
   1620500   2025.4807      182748.09     -193752.53      13270.586     -180481.94      1.4689524      19683               2199 
   1621000   2013.5036      200493.55     -193767.55      13192.114     -180575.43      1.4689524      19683               2199 
   1621500   2008.9604      191826.8      -193802.34      13162.348     -180640         1.4689524      19683               2199 
   1622000   1978.8423      194814.23     -193685.88      12965.019     -180720.86      1.4689524      19683               2199 
   1622500   2002.002       186245.8      -193848.64      13116.758     -180731.88      1.4689524      19683               2199 
   1623000   1974.7259      203002.09     -193654.3       12938.05      -180716.25      1.4689524      19683               2199 
   1623500   1997.2048      191553.75     -193631.42      13085.327     -180546.1       1.4689524      19683               2199 
   1624000   2018.8556      204489.24     -193459.12      13227.18      -180231.94      1.4689524      19683               2199 
   1624500   2051.6168      197153.09     -193393.33      13441.825     -179951.5       1.4689524      19683               2199 
   1625000   2095.6298      188043.27     -193630.47      13730.19      -179900.28      1.4689524      19683               2199 
   1625500   2016.4983      198831.06     -193252.32      13211.735     -180040.59      1.4689524      19683               2199 
   1626000   2023.8669      203739.99     -193501.8       13260.013     -180241.79      1.4689524      19683               2199 
   1626500   2015.6565      199580.04     -193626.09      13206.219     -180419.87      1.4689524      19683               2199 
   1627000   2019.4304      190008.63     -193737.82      13230.946     -180506.87      1.4689524      19683               2199 
   1627500   1969.0881      190574.85     -193422.14      12901.112     -180521.03      1.4689524      19683               2199 
   1628000   1990.902       189374.66     -193556.04      13044.033     -180512.01      1.4689524      19683               2199 
   1628500   1993.5971      197411.4      -193560.98      13061.69      -180499.29      1.4689524      19683               2199 
   1629000   1996.9815      185590.3      -193596.45      13083.864     -180512.58      1.4689524      19683               2199 
   1629500   1989.2856      205451.14     -193557.02      13033.442     -180523.57      1.4689524      19683               2199 
   1630000   1970.2539      199829.3      -193434.29      12908.75      -180525.54      1.4689524      19683               2199 
   1630500   1957.2685      198280.65     -193412.89      12823.672     -180589.22      1.4689524      19683               2199 
   1631000   1958.9111      204514.28     -193532.68      12834.434     -180698.25      1.4689524      19683               2199 
   1631500   1967.2826      200790.61     -193652.85      12889.282     -180763.57      1.4689524      19683               2199 
   1632000   2021.558       194157        -193951.21      13244.885     -180706.33      1.4689524      19683               2199 
   1632500   1978.6046      184412.06     -193475.04      12963.462     -180511.58      1.4689524      19683               2199 
   1633000   2020.6212      194208.56     -193499.1       13238.748     -180260.36      1.4689524      19683               2199 
   1633500   2033.4878      204552.19     -193392.09      13323.047     -180069.04      1.4689524      19683               2199 
   1634000   2035.7435      192895.09     -193303.48      13337.826     -179965.65      1.4689524      19683               2199 
   1634500   2071.0092      191809.7      -193563.38      13568.88      -179994.5       1.4689524      19683               2199 
   1635000   2018.0122      200819.16     -193419.92      13221.654     -180198.26      1.4689524      19683               2199 
   1635500   2039.5758      190591.88     -193791.76      13362.934     -180428.82      1.4689524      19683               2199 
   1636000   1962.9585      192137.11     -193455.26      12860.952     -180594.31      1.4689524      19683               2199 
   1636500   1977.4224      186973.84     -193558.37      12955.717     -180602.65      1.4689524      19683               2199 
   1637000   1976.0805      198190.79     -193516.48      12946.925     -180569.56      1.4689524      19683               2199 
   1637500   2018.4933      198442.9      -193760.86      13224.806     -180536.06      1.4689524      19683               2199 
   1638000   2000.2027      192665.22     -193572.47      13104.969     -180467.5       1.4689524      19683               2199 
   1638500   2026.6795      198667.71     -193655.12      13278.44      -180376.68      1.4689524      19683               2199 
   1639000   2019.103       200106.61     -193601.59      13228.8       -180372.79      1.4689524      19683               2199 
   1639500   1999.9184      195819.12     -193522.87      13103.107     -180419.76      1.4689524      19683               2199 
   1640000   1975.5715      189706.81     -193481.95      12943.59      -180538.36      1.4689524      19683               2199 
   1640500   2018.4399      207274.35     -193919.11      13224.456     -180694.66      1.4689524      19683               2199 
   1641000   1944.0053      200067.58     -193574.34      12736.774     -180837.57      1.4689524      19683               2199 
   1641500   1936.6714      193258.09     -193636.64      12688.724     -180947.91      1.4689524      19683               2199 
   1642000   1975.7204      178448.78     -193865.38      12944.565     -180920.81      1.4689524      19683               2199 
   1642500   1971.8012      195870.79     -193636.98      12918.888     -180718.09      1.4689524      19683               2199 
   1643000   2038.4586      191203.04     -193733.89      13355.615     -180378.27      1.4689524      19683               2199 
   1643500   2069.4321      192468.64     -193720.57      13558.548     -180162.03      1.4689524      19683               2199 
   1644000   2056.9049      183573.93     -193614.94      13476.471     -180138.47      1.4689524      19683               2199 
   1644500   2042.7855      190846.07     -193603.52      13383.964     -180219.55      1.4689524      19683               2199 
   1645000   2054.6774      186407.7      -193855.09      13461.878     -180393.22      1.4689524      19683               2199 
   1645500   1985.6414      189184.06     -193580.73      13009.566     -180571.16      1.4689524      19683               2199 
   1646000   1992.8951      191861.37     -193762.72      13057.091     -180705.63      1.4689524      19683               2199 
   1646500   1997.319       191057.96     -193806.5       13086.076     -180720.42      1.4689524      19683               2199 
   1647000   2008.4674      195712.01     -193841.71      13159.118     -180682.6       1.4689524      19683               2199 
   1647500   1978.2576      183049.44     -193595.54      12961.189     -180634.35      1.4689524      19683               2199 
   1648000   1990.0967      180461.79     -193612.32      13038.757     -180573.56      1.4689524      19683               2199 
   1648500   1996.4387      199074.85     -193563.12      13080.308     -180482.82      1.4689524      19683               2199 
   1649000   2014.9628      193122.82     -193486.06      13201.675     -180284.38      1.4689524      19683               2199 
   1649500   2075.7236      199168.17     -193618.88      13599.768     -180019.12      1.4689524      19683               2199 
   1650000   2062.4793      192271.34     -193363.32      13512.994     -179850.33      1.4689524      19683               2199 
   1650500   2011.5932      194446.44     -193103.09      13179.597     -179923.49      1.4689524      19683               2199 
   1651000   2019.4362      190711.26     -193415.55      13230.983     -180184.57      1.4689524      19683               2199 
   1651500   2013.4295      186837.03     -193653.4       13191.629     -180461.78      1.4689524      19683               2199 
   1652000   2012.3425      185331.75     -193807.1       13184.507     -180622.59      1.4689524      19683               2199 
   1652500   1990.326       192868.94     -193735.16      13040.259     -180694.9       1.4689524      19683               2199 
   1653000   1992.4295      189314.31     -193761.79      13054.04      -180707.75      1.4689524      19683               2199 
   1653500   1970.4109      192894.99     -193568.13      12909.779     -180658.35      1.4689524      19683               2199 
   1654000   2052.7783      177004.15     -194015.69      13449.435     -180566.26      1.4689524      19683               2199 
   1654500   2022.5751      199995.32     -193696.16      13251.549     -180444.61      1.4689524      19683               2199 
   1655000   2032.9116      198900.66     -193581.49      13319.272     -180262.22      1.4689524      19683               2199 
   1655500   2063.4263      193650.62     -193583.69      13519.199     -180064.49      1.4689524      19683               2199 
   1656000   2065.9989      191703.68     -193490.92      13536.054     -179954.87      1.4689524      19683               2199 
   1656500   2064.7352      199907.44     -193563.41      13527.774     -180035.64      1.4689524      19683               2199 
   1657000   1993.6402      189916.74     -193393.28      13061.973     -180331.31      1.4689524      19683               2199 
   1657500   2037.624       184066.12     -193974.02      13350.146     -180623.87      1.4689524      19683               2199 
   1658000   1998.7032      184242.22     -193866.62      13095.144     -180771.47      1.4689524      19683               2199 
   1658500   1973.3409      187314.01     -193727.55      12928.975     -180798.58      1.4689524      19683               2199 
   1659000   1990.8662      181458.08     -193821.97      13043.798     -180778.17      1.4689524      19683               2199 
   1659500   1991.7408      194704.72     -193767.46      13049.528     -180717.93      1.4689524      19683               2199 
   1660000   1998.4136      195001.88     -193708.32      13093.247     -180615.07      1.4689524      19683               2199 
   1660500   2033.2149      191164.28     -193772.93      13321.259     -180451.67      1.4689524      19683               2199 
   1661000   1984.287       198123.23     -193258.04      13000.693     -180257.34      1.4689524      19683               2199 
   1661500   2087.0021      188448.83     -193755.84      13673.663     -180082.18      1.4689524      19683               2199 
   1662000   2096.9785      197048.26     -193771.48      13739.027     -180032.45      1.4689524      19683               2199 
   1662500   2031.4416      195697.9      -193540.05      13309.64      -180230.41      1.4689524      19683               2199 
   1663000   2013.834       196057.97     -193759.94      13194.279     -180565.66      1.4689524      19683               2199 
   1663500   2009.5784      191304.66     -193939.67      13166.397     -180773.28      1.4689524      19683               2199 
   1664000   1984.2568      177196.42     -193836.56      13000.495     -180836.06      1.4689524      19683               2199 
   1664500   1953.7385      183356.9      -193585.52      12800.544     -180784.97      1.4689524      19683               2199 
   1665000   1969.4057      193261.38     -193618.13      12903.192     -180714.93      1.4689524      19683               2199 
   1665500   1996.3367      189315.51     -193648.43      13079.64      -180568.79      1.4689524      19683               2199 
   1666000   2016.7594      181671.23     -193584.8       13213.446     -180371.36      1.4689524      19683               2199 
   1666500   2083.3607      192684.29     -193813.93      13649.805     -180164.12      1.4689524      19683               2199 
   1667000   2080.3076      197273.38     -193573.5       13629.802     -179943.7       1.4689524      19683               2199 
   1667500   2070.616       191917.31     -193340.22      13566.304     -179773.92      1.4689524      19683               2199 
   1668000   2075.1787      189771.83     -193356.37      13596.198     -179760.18      1.4689524      19683               2199 
   1668500   2062.2293      193896.32     -193561.65      13511.356     -180050.3       1.4689524      19683               2199 
   1669000   2008.0181      185600.87     -193599.2       13156.174     -180443.03      1.4689524      19683               2199 
   1669500   1995.4498      199440.17     -193704.49      13073.829     -180630.66      1.4689524      19683               2199 
   1670000   2006.5984      186912.65     -193891.86      13146.872     -180744.99      1.4689524      19683               2199 
   1670500   1983.4005      181011.23     -193781.85      12994.884     -180786.97      1.4689524      19683               2199 
   1671000   1952.8926      191484.11     -193598.33      12795.002     -180803.33      1.4689524      19683               2199 
   1671500   2038.7245      195211.73     -194121.64      13357.357     -180764.28      1.4689524      19683               2199 
   1672000   1972.9223      194595.01     -193587.72      12926.233     -180661.49      1.4689524      19683               2199 
   1672500   1989.2829      193499.21     -193500.81      13033.424     -180467.39      1.4689524      19683               2199 
   1673000   1970.9928      183000.16     -193187.47      12913.591     -180273.88      1.4689524      19683               2199 
   1673500   2055.2677      190687.49     -193561.18      13465.745     -180095.43      1.4689524      19683               2199 
   1674000   2002.5032      186103.2      -193110.3       13120.041     -179990.26      1.4689524      19683               2199 
   1674500   2037.759       190069.45     -193328.8       13351.031     -179977.77      1.4689524      19683               2199 
   1675000   2000.8104      200773.18     -193299.93      13108.95      -180190.98      1.4689524      19683               2199 
   1675500   2008.2963      184752.7      -193731.95      13157.997     -180573.95      1.4689524      19683               2199 
   1676000   2003.2724      183014.16     -193919.82      13125.081     -180794.74      1.4689524      19683               2199 
   1676500   1985.025       180541.56     -193898.48      13005.528     -180892.95      1.4689524      19683               2199 
   1677000   1929.5987      193868.87     -193520.03      12642.384     -180877.65      1.4689524      19683               2199 
   1677500   1966.0328      200670.5      -193606.37      12881.094     -180725.28      1.4689524      19683               2199 
   1678000   2017.8327      203042.34     -193729.79      13220.477     -180509.31      1.4689524      19683               2199 
   1678500   1972.7543      194871.4      -193232.06      12925.132     -180306.93      1.4689524      19683               2199 
   1679000   2019.9654      182819.13     -193395.08      13234.45      -180160.63      1.4689524      19683               2199 
   1679500   2018.6376      197818.95     -193330.23      13225.751     -180104.48      1.4689524      19683               2199 
   1680000   2037.131       202644.02     -193526.87      13346.917     -180179.96      1.4689524      19683               2199 
   1680500   1998.1547      195351.84     -193484.27      13091.551     -180392.72      1.4689524      19683               2199 
   1681000   2006.8743      185574.84     -193798.76      13148.68      -180650.08      1.4689524      19683               2199 
   1681500   1997.916       186834.26     -193878.24      13089.987     -180788.25      1.4689524      19683               2199 
   1682000   1984.3025      192044.51     -193784.7       13000.793     -180783.91      1.4689524      19683               2199 
   1682500   1956.3506      190184.03     -193530.78      12817.658     -180713.12      1.4689524      19683               2199 
   1683000   1999.9629      187161.74     -193693.26      13103.398     -180589.86      1.4689524      19683               2199 
   1683500   2005.7139      193107.66     -193589.58      13141.077     -180448.5       1.4689524      19683               2199 
   1684000   2011.5734      196499.45     -193480.86      13179.468     -180301.39      1.4689524      19683               2199 
   1684500   2047.0116      183466.48     -193600.64      13411.652     -180188.98      1.4689524      19683               2199 
   1685000   1983.4878      194763.46     -193179.62      12995.456     -180184.17      1.4689524      19683               2199 
   1685500   2035.5511      192224.13     -193509.26      13336.565     -180172.7       1.4689524      19683               2199 
   1686000   2007.0013      190816.76     -193446.05      13149.512     -180296.54      1.4689524      19683               2199 
   1686500   1987.73        194263.47     -193601.15      13023.25      -180577.9       1.4689524      19683               2199 
   1687000   1934.2514      181783.35     -193497.58      12672.868     -180824.71      1.4689524      19683               2199 
   1687500   1923.2662      193980.71     -193494.13      12600.895     -180893.23      1.4689524      19683               2199 
   1688000   1943.3267      192214.36     -193553.1       12732.328     -180820.77      1.4689524      19683               2199 
   1688500   2018.0562      189747.07     -193904.56      13221.942     -180682.62      1.4689524      19683               2199 
   1689000   1984.1641      192398.35     -193534.84      12999.887     -180534.95      1.4689524      19683               2199 
   1689500   1990.4395      200179.16     -193434.51      13041.003     -180393.51      1.4689524      19683               2199 
   1690000   2028.18        194758.36     -193603.04      13288.271     -180314.77      1.4689524      19683               2199 
   1690500   2008.6425      197486.21     -193425.18      13160.265     -180264.92      1.4689524      19683               2199 
   1691000   2029.127       192440.1      -193541.33      13294.476     -180246.86      1.4689524      19683               2199 
   1691500   2021.0576      204969.66     -193500.54      13241.607     -180258.93      1.4689524      19683               2199 
   1692000   1992.9644      189676.6      -193362.37      13057.545     -180304.83      1.4689524      19683               2199 
   1692500   2008.1147      190953.75     -193553.38      13156.807     -180396.57      1.4689524      19683               2199 
   1693000   1988.6066      196358.06     -193563.02      13028.994     -180534.02      1.4689524      19683               2199 
   1693500   1962.9604      192264.38     -193550.77      12860.964     -180689.8       1.4689524      19683               2199 
   1694000   1987.0472      177590.19     -193811.29      13018.776     -180792.51      1.4689524      19683               2199 
   1694500   1986.2377      190985.17     -193834.77      13013.473     -180821.3       1.4689524      19683               2199 
   1695000   1952.8114      196475.87     -193566.82      12794.47      -180772.35      1.4689524      19683               2199 
   1695500   1982.8182      199227.18     -193541.72      12991.069     -180550.66      1.4689524      19683               2199 
   1696000   2013.5753      197838.99     -193383.07      13192.584     -180190.48      1.4689524      19683               2199 
   1696500   2082.7643      193027.56     -193653.69      13645.898     -180007.79      1.4689524      19683               2199 
   1697000   2028.6359      196067.4      -193303.91      13291.259     -180012.65      1.4689524      19683               2199 
   1697500   2040.8845      189216.56     -193526.61      13371.509     -180155.1       1.4689524      19683               2199 
   1698000   2052.5598      202873.49     -193788.97      13448.004     -180340.96      1.4689524      19683               2199 
   1698500   2039.4726      185361.21     -193844.12      13362.258     -180481.86      1.4689524      19683               2199 
   1699000   2006.5367      183064.89     -193703.88      13146.468     -180557.41      1.4689524      19683               2199 
   1699500   2012.9521      192049.22     -193772.93      13188.501     -180584.43      1.4689524      19683               2199 
   1700000   1969.7285      190456.78     -193504.1       12905.308     -180598.79      1.4689524      19683               2199 
   1700500   1979.601       194941.43     -193534.99      12969.99      -180565         1.4689524      19683               2199 
   1701000   1972.5621      205455.14     -193396.45      12923.872     -180472.57      1.4689524      19683               2199 
   1701500   2014.9679      189309.45     -193514.53      13201.708     -180312.82      1.4689524      19683               2199 
   1702000   2017.5197      197130.8      -193293.45      13218.427     -180075.02      1.4689524      19683               2199 
   1702500   2050.847       189430.1      -193315.56      13436.782     -179878.78      1.4689524      19683               2199 
   1703000   2023.3597      191343.76     -193015.11      13256.689     -179758.42      1.4689524      19683               2199 
   1703500   2000.5319      201796.6      -192983.39      13107.126     -179876.26      1.4689524      19683               2199 
   1704000   1990.8143      198718.09     -193256.84      13043.458     -180213.38      1.4689524      19683               2199 
   1704500   2002.6666      190066.78     -193601.53      13121.112     -180480.42      1.4689524      19683               2199 
   1705000   1975.299       189419.07     -193506.44      12941.805     -180564.64      1.4689524      19683               2199 
   1705500   2012.9264      186584.67     -193756.59      13188.332     -180568.26      1.4689524      19683               2199 
   1706000   2005.1305      196138.66     -193668.17      13137.255     -180530.91      1.4689524      19683               2199 
   1706500   1974.5366      203155.81     -193361.92      12936.809     -180425.11      1.4689524      19683               2199 
   1707000   2017.2305      195764.16     -193481.53      13216.532     -180264.99      1.4689524      19683               2199 
   1707500   2000.1124      196544.39     -193182.12      13104.377     -180077.74      1.4689524      19683               2199 
   1708000   2062.1744      192145.8      -193412.75      13510.997     -179901.75      1.4689524      19683               2199 
   1708500   2066.5213      193171.93     -193328.22      13539.477     -179788.74      1.4689524      19683               2199 
   1709000   2067.9854      189982.67     -193395.25      13549.069     -179846.18      1.4689524      19683               2199 
   1709500   1969.1475      185793.48     -193080.94      12901.501     -180179.44      1.4689524      19683               2199 
   1710000   1987.7441      188016.57     -193505.59      13023.342     -180482.25      1.4689524      19683               2199 
   1710500   1966.8836      199360.27     -193527.4       12886.668     -180640.73      1.4689524      19683               2199 
   1711000   1996.8121      196179.43     -193806.95      13082.754     -180724.2       1.4689524      19683               2199 
   1711500   1975.9562      186064.17     -193722.08      12946.11      -180775.97      1.4689524      19683               2199 
   1712000   1993.9099      188410.39     -193810.75      13063.74      -180747.01      1.4689524      19683               2199 
   1712500   1987.6682      194128.3      -193718.64      13022.845     -180695.79      1.4689524      19683               2199 
   1713000   2028.391       192329.39     -193898.85      13289.654     -180609.2       1.4689524      19683               2199 
   1713500   1994.1605      192896.21     -193573.2       13065.382     -180507.82      1.4689524      19683               2199 
   1714000   2004.2915      182963.92     -193467.33      13131.758     -180335.57      1.4689524      19683               2199 
   1714500   2050.2162      192622.12     -193610.44      13432.648     -180177.79      1.4689524      19683               2199 
   1715000   2066.2412      192654.48     -193626.9       13537.641     -180089.25      1.4689524      19683               2199 
   1715500   2009.6274      192160.79     -193320.73      13166.718     -180154.02      1.4689524      19683               2199 
   1716000   2017.6765      187715.22     -193625.39      13219.454     -180405.94      1.4689524      19683               2199 
   1716500   1950.798       193690.57     -193482.17      12781.278     -180700.89      1.4689524      19683               2199 
   1717000   1984.7176      192681.74     -193814.08      13003.513     -180810.57      1.4689524      19683               2199 
   1717500   2010.9236      175461.72     -193992.44      13175.21      -180817.23      1.4689524      19683               2199 
   1718000   1981.149       180214.64     -193745.27      12980.133     -180765.14      1.4689524      19683               2199 
   1718500   1984.9906      186087.49     -193649.49      13005.302     -180644.19      1.4689524      19683               2199 
   1719000   2028.736       196768.27     -193736.71      13291.914     -180444.79      1.4689524      19683               2199 
   1719500   2031.0187      187901.3      -193618.13      13306.87      -180311.26      1.4689524      19683               2199 
   1720000   2028.1601      181436.13     -193542.42      13288.141     -180254.28      1.4689524      19683               2199 
   1720500   2025.7295      194278.13     -193505.3       13272.216     -180233.09      1.4689524      19683               2199 
   1721000   1977.1911      192179.37     -193138.42      12954.201     -180184.22      1.4689524      19683               2199 
   1721500   2019.2885      190656.83     -193370.59      13230.016     -180140.57      1.4689524      19683               2199 
   1722000   1999.9595      201348.74     -193276.72      13103.376     -180173.34      1.4689524      19683               2199 
   1722500   1980.757       203846.73     -193225.92      12977.565     -180248.36      1.4689524      19683               2199 
   1723000   2015.4533      205731.76     -193552.65      13204.888     -180347.76      1.4689524      19683               2199 
   1723500   1989.5383      197731.74     -193513.9       13035.098     -180478.8       1.4689524      19683               2199 
   1724000   1984.462       195616.82     -193642.53      13001.839     -180640.69      1.4689524      19683               2199 
   1724500   1985.3979      195400.01     -193819.81      13007.971     -180811.84      1.4689524      19683               2199 
   1725000   1950.8728      186051.74     -193681.95      12781.768     -180900.18      1.4689524      19683               2199 
   1725500   1946.5522      196094.03     -193595.15      12753.46      -180841.69      1.4689524      19683               2199 
   1726000   1951.9477      187308.94     -193401.99      12788.811     -180613.18      1.4689524      19683               2199 
   1726500   2000.9445      186276.07     -193370.48      13109.829     -180260.65      1.4689524      19683               2199 
   1727000   2009.2069      192112.43     -193209.61      13163.963     -180045.65      1.4689524      19683               2199 
   1727500   2006.6647      200901.97     -193137.07      13147.307     -179989.76      1.4689524      19683               2199 
   1728000   2024.0668      198603.76     -193286.68      13261.322     -180025.36      1.4689524      19683               2199 
   1728500   2011.9147      193700.03     -193320.17      13181.704     -180138.47      1.4689524      19683               2199 
   1729000   1998.7122      203069.09     -193392.35      13095.203     -180297.15      1.4689524      19683               2199 
   1729500   1988.0986      187708.73     -193500.27      13025.665     -180474.6       1.4689524      19683               2199 
   1730000   2001.6148      184281.19     -193702.7       13114.221     -180588.48      1.4689524      19683               2199 
   1730063   1962.9794      192301.55     -193464.85      12861.089     -180603.77      1.4689524      19683               2199 
Loop time of 18963.9 on 48 procs for 400000 steps with 2199 atoms

Performance: 0.182 ns/day, 131.694 hours/ns, 21.093 timesteps/s, 46.383 katom-step/s
99.5% CPU use with 12 MPI tasks x 4 OpenMP threads

MPI task timing breakdown:
Section |  min time  |  avg time  |  max time  |%varavg| %total
---------------------------------------------------------------
Pair    | 16035      | 16126      | 16285      |  57.6 | 85.04
Neigh   | 136.29     | 137.16     | 138.78     |   5.9 |  0.72
Comm    | 167.08     | 327.13     | 417.71     | 402.6 |  1.73
Output  | 0.098985   | 0.1152     | 0.13875    |   3.0 |  0.00
Modify  | 2362.6     | 2364.4     | 2365.6     |   1.7 | 12.47
Other   |            | 8.901      |            |       |  0.05

Nlocal:         183.25 ave         196 max         176 min
Histogram: 3 2 0 1 1 3 0 1 0 1
Nghost:        5027.17 ave        5057 max        4993 min
Histogram: 2 0 1 1 1 1 2 1 2 1
Neighs:         133263 ave      142549 max      128086 min
Histogram: 3 2 0 2 1 2 1 0 0 1

Total # of neighbors = 1599154
Ave neighs/atom = 727.21874
Neighbor list builds = 4609
Dangerous builds = 0
System init for write_restart ...
=== Phase 5: Cooling 2000 -> 300 K ===
Setting up Verlet run ...
  Unit style    : real
  Current step  : 1730063
  Time step     : 0.1
Per MPI rank memory allocation (min/avg/max) = 357.4 | 362.2 | 366 Mbytes
   Step          Temp          Press          PotEng         KinEng         TotEng        Density         Volume        Atoms   
   1730063   1962.9794      192302.27     -193464.85      12861.089     -180603.76      1.4689524      19683               2199 
   1730500   1985.9827      177805.23     -193597.04      13011.802     -180585.24      1.4689524      19683               2199 
   1731000   1990.7441      190550.12     -193640.4       13042.998     -180597.4       1.4689524      19683               2199 
   1731500   1979.2598      183050.86     -193693.49      12967.755     -180725.73      1.4689524      19683               2199 
   1732000   1960.8579      184964.7      -193850.77      12847.189     -181003.59      1.4689524      19683               2199 
   1732500   1932.2876      190047.91     -193977.36      12660.002     -181317.36      1.4689524      19683               2199 
   1733000   1911.7839      187340.7      -193970.08      12525.665     -181444.42      1.4689524      19683               2199 
   1733500   1931.2817      180884.26     -194118.38      12653.411     -181464.97      1.4689524      19683               2199 
   1734000   1939.3923      182091.04     -194182.95      12706.55      -181476.4       1.4689524      19683               2199 
   1734500   1909.3722      191350.27     -194017.27      12509.864     -181507.4       1.4689524      19683               2199 
   1735000   1945.5445      185243.02     -194355.69      12746.859     -181608.84      1.4689524      19683               2199 
   1735500   1899.6878      191459.18     -194314.34      12446.413     -181867.92      1.4689524      19683               2199 
   1736000   1889.4704      180853.09     -194513.74      12379.471     -182134.27      1.4689524      19683               2199 
   1736500   1873.4234      175186.7      -194524.79      12274.334     -182250.45      1.4689524      19683               2199 
   1737000   1871.353       181471.79     -194550.72      12260.769     -182289.95      1.4689524      19683               2199 
   1737500   1821.4288      185257.76     -194299.72      11933.674     -182366.05      1.4689524      19683               2199 
   1738000   1869.7966      175752.1      -194713.51      12250.572     -182462.94      1.4689524      19683               2199 
   1738500   1895.3025      172308.19     -195018.55      12417.681     -182600.87      1.4689524      19683               2199 
   1739000   1842.4332      180515.36     -194902         12071.292     -182830.7       1.4689524      19683               2199 
   1739500   1816.7445      188869.03     -194925.63      11902.984     -183022.65      1.4689524      19683               2199 
   1740000   1830.4225      173816.37     -195111.96      11992.6       -183119.36      1.4689524      19683               2199 
   1740500   1771.0673      184743.77     -194851.31      11603.715     -183247.6       1.4689524      19683               2199 
   1741000   1816.9946      165052.6      -195331.15      11904.622     -183426.53      1.4689524      19683               2199 
   1741500   1759.899       177333.58     -195121.42      11530.543     -183590.88      1.4689524      19683               2199 
   1742000   1776.7446      170303.24     -195400.65      11640.912     -183759.74      1.4689524      19683               2199 
   1742500   1775.6394      165602.59     -195529.42      11633.671     -183895.75      1.4689524      19683               2199 
   1743000   1769.9354      166009.53     -195659.39      11596.299     -184063.1       1.4689524      19683               2199 
   1743500   1723.8064      167928.71     -195504.13      11294.07      -184210.06      1.4689524      19683               2199 
   1744000   1727.9957      169634.06     -195644.8       11321.518     -184323.29      1.4689524      19683               2199 
   1744500   1733.1028      174173.59     -195796.42      11354.978     -184441.45      1.4689524      19683               2199 
   1745000   1722.3666      179436.62     -195887.96      11284.637     -184603.32      1.4689524      19683               2199 
   1745500   1702.1847      166815.94     -195902.81      11152.409     -184750.4       1.4689524      19683               2199 
   1746000   1674.7456      166213.56     -195852.82      10972.633     -184880.19      1.4689524      19683               2199 
   1746500   1645.7157      154182.67     -195775.69      10782.434     -184993.26      1.4689524      19683               2199 
   1747000   1628.6455      169831.66     -195769.36      10670.593     -185098.77      1.4689524      19683               2199 
   1747500   1652.4464      167581.5      -196037.11      10826.532     -185210.58      1.4689524      19683               2199 
   1748000   1615.1433      169511.34     -195927.27      10582.129     -185345.14      1.4689524      19683               2199 
   1748500   1652.0318      163373.16     -196294.21      10823.816     -185470.39      1.4689524      19683               2199 
   1749000   1591.1361      169414.49     -196010.57      10424.838     -185585.73      1.4689524      19683               2199 
   1749500   1603.4592      169929.4      -196223.47      10505.577     -185717.89      1.4689524      19683               2199 
   1750000   1565.5806      161599.13     -196079.66      10257.403     -185822.26      1.4689524      19683               2199 
   1750500   1589.5455      151085.04     -196341.36      10414.417     -185926.94      1.4689524      19683               2199 
   1751000   1571.147       167383.66     -196359.37      10293.873     -186065.5       1.4689524      19683               2199 
   1751500   1588.171       152412.08     -196645.48      10405.411     -186240.07      1.4689524      19683               2199 
   1752000   1578.6545      166546.95     -196738.17      10343.061     -186395.11      1.4689524      19683               2199 
   1752500   1581.6427      158597.52     -196907.11      10362.639     -186544.47      1.4689524      19683               2199 
   1753000   1555.5966      157554.84     -196910.59      10191.99      -186718.6       1.4689524      19683               2199 
   1753500   1517.154       147407.78     -196850.84      9940.1204     -186910.72      1.4689524      19683               2199 
   1754000   1519.6386      152382.08     -197039.47      9956.3993     -187083.07      1.4689524      19683               2199 
   1754500   1495.6489      148588.15     -197052.49      9799.2231     -187253.27      1.4689524      19683               2199 
   1755000   1512.5854      148500.79     -197323.6       9910.1877     -187413.41      1.4689524      19683               2199 
   1755500   1471.5206      153209.83     -197224.01      9641.1388     -187582.88      1.4689524      19683               2199 
   1756000   1443.917       145845.03     -197187.53      9460.2847     -187727.24      1.4689524      19683               2199 
   1756500   1467.7524      148966.9      -197466.74      9616.45       -187850.29      1.4689524      19683               2199 
   1757000   1423.5946      159781.31     -197314.35      9327.1363     -187987.21      1.4689524      19683               2199 
   1757500   1445.797       145838.32     -197580.65      9472.6021     -188108.05      1.4689524      19683               2199 
   1758000   1412.0807      145240.72     -197478.48      9251.6994     -188226.78      1.4689524      19683               2199 
   1758500   1414.3923      145469.72     -197628.76      9266.8446     -188361.92      1.4689524      19683               2199 
   1759000   1435.5051      143831.86     -197877.24      9405.1718     -188472.07      1.4689524      19683               2199 
   1759500   1412.3868      147889.76     -197834.92      9253.705      -188581.21      1.4689524      19683               2199 
   1760000   1377.0769      152025.86     -197758.39      9022.3603     -188736.03      1.4689524      19683               2199 
   1760500   1387.0144      144651.66     -197960.17      9087.4693     -188872.7       1.4689524      19683               2199 
   1761000   1351.0995      144919.4      -197847.14      8852.1617     -188994.98      1.4689524      19683               2199 
   1761500   1337.3639      139370.28     -197889.36      8762.1684     -189127.19      1.4689524      19683               2199 
   1762000   1364.1715      140216.85     -198223.37      8937.8067     -189285.56      1.4689524      19683               2199 
   1762500   1300.891       127540.64     -197938.88      8523.2045     -189415.68      1.4689524      19683               2199 
   1763000   1319.8541      126541.37     -198187.3       8647.4472     -189539.86      1.4689524      19683               2199 
   1763500   1304.1519      135836        -198214.96      8544.5693     -189670.39      1.4689524      19683               2199 
   1764000   1265.7054      134911.71     -198062.96      8292.6747     -189770.28      1.4689524      19683               2199 
   1764500   1303.8078      139309.92     -198438.52      8542.3145     -189896.21      1.4689524      19683               2199 
   1765000   1259.1342      127820.31     -198307.79      8249.6211     -190058.17      1.4689524      19683               2199 
   1765500   1282.8169      135821.05     -198591.32      8404.7861     -190186.53      1.4689524      19683               2199 
   1766000   1241.1586      137575.78     -198445.61      8131.8483     -190313.76      1.4689524      19683               2199 
   1766500   1261.9459      134133.1      -198705.02      8268.0428     -190436.98      1.4689524      19683               2199 
   1767000   1248.9095      135356.72     -198765.67      8182.6305     -190583.04      1.4689524      19683               2199 
   1767500   1246.0601      131397.65     -198899.27      8163.9624     -190735.31      1.4689524      19683               2199 
   1768000   1195.447       128210.57     -198703.5       7832.354      -190871.15      1.4689524      19683               2199 
   1768500   1223.5495      130360.81     -199035.91      8016.4766     -191019.43      1.4689524      19683               2199 
   1769000   1223.7619      119281.4      -199199.17      8017.8683     -191181.3       1.4689524      19683               2199 
   1769500   1169.7063      124388.43     -198972.84      7663.7059     -191309.14      1.4689524      19683               2199 
   1770000   1183.9151      120998.97     -199209.12      7756.7995     -191452.32      1.4689524      19683               2199 
   1770500   1144.0916      121821        -199089.04      7495.8825     -191593.16      1.4689524      19683               2199 
   1771000   1152.6187      120403.75     -199255.63      7551.751      -191703.88      1.4689524      19683               2199 
   1771500   1143.1885      127450.93     -199350.96      7489.9658     -191860.99      1.4689524      19683               2199 
   1772000   1134.8516      129600.31     -199448.82      7435.344      -192013.48      1.4689524      19683               2199 
   1772500   1141.1424      126114.61     -199632.44      7476.56       -192155.88      1.4689524      19683               2199 
   1773000   1127.3111      117158.98     -199693.49      7385.9402     -192307.55      1.4689524      19683               2199 
   1773500   1119.4384      115235.67     -199798.49      7334.3595     -192464.13      1.4689524      19683               2199 
   1774000   1105.013       114457.87     -199852.31      7239.847      -192612.46      1.4689524      19683               2199 
   1774500   1102.9656      119465.47     -200007.38      7226.4326     -192780.94      1.4689524      19683               2199 
   1775000   1067.2186      121943.66     -199900.85      6992.2244     -192908.62      1.4689524      19683               2199 
   1775500   1050.2316      111731.75     -199926.45      6880.9289     -193045.52      1.4689524      19683               2199 
   1776000   1035.2684      118424.7      -199964.86      6782.8924     -193181.97      1.4689524      19683               2199 
   1776500   1019.521       118978.15     -199995.87      6679.7185     -193316.15      1.4689524      19683               2199 
   1777000   1039.4295      114719.91     -200253.62      6810.1556     -193443.47      1.4689524      19683               2199 
   1777500   1020.7007      106709.03     -200296.6       6687.448      -193609.16      1.4689524      19683               2199 
   1778000   1023.4224      108538.14     -200461.94      6705.2802     -193756.66      1.4689524      19683               2199 
   1778500   979.09101      108229.65     -200305.23      6414.8285     -193890.41      1.4689524      19683               2199 
   1779000   987.49375      106914.35     -200493.54      6469.8818     -194023.66      1.4689524      19683               2199 
   1779500   990.34878      101292.28     -200658.83      6488.5875     -194170.24      1.4689524      19683               2199 
   1780000   970.42837      108792.39     -200673.87      6358.0725     -194315.79      1.4689524      19683               2199 
   1780500   961.49443      99743.576     -200746.38      6299.5389     -194446.84      1.4689524      19683               2199 
   1781000   936.29         100709.04     -200734.57      6134.404      -194600.16      1.4689524      19683               2199 
   1781500   926.0271       107150.16     -200790.34      6067.1633     -194723.18      1.4689524      19683               2199 
   1782000   934.29984      96475.656     -200971.22      6121.3648     -194849.86      1.4689524      19683               2199 
   1782500   920.1795       100407.94     -201010.68      6028.8509     -194981.83      1.4689524      19683               2199 
   1783000   902.19337      103964.46     -201031.92      5911.009      -195120.91      1.4689524      19683               2199 
   1783500   892.60062      102804.99     -201110.91      5848.1591     -195262.75      1.4689524      19683               2199 
   1784000   870.42891      96262.228     -201107.82      5702.894      -195404.92      1.4689524      19683               2199 
   1784500   862.40733      97529.174     -201176.52      5650.338      -195526.19      1.4689524      19683               2199 
   1785000   837.41308      99297.726     -201145.85      5486.5802     -195659.27      1.4689524      19683               2199 
   1785500   860.20002      94921.442     -201434.55      5635.8761     -195798.67      1.4689524      19683               2199 
   1786000   854.07545      90480.862     -201551.63      5595.749      -195955.88      1.4689524      19683               2199 
   1786500   820.23575      94375.305     -201485.42      5374.0374     -196111.38      1.4689524      19683               2199 
   1787000   819.66585      94336.004     -201609.38      5370.3035     -196239.07      1.4689524      19683               2199 
   1787500   802.51197      90773.016     -201646.65      5257.9144     -196388.73      1.4689524      19683               2199 
   1788000   803.95851      91019.332     -201808.23      5267.3918     -196540.84      1.4689524      19683               2199 
   1788500   795.53759      90331.833     -201887.34      5212.2195     -196675.12      1.4689524      19683               2199 
   1789000   801.18242      87447.413     -202082.29      5249.2034     -196833.09      1.4689524      19683               2199 
   1789500   768.39073      90635.95      -202034.11      5034.3581     -196999.75      1.4689524      19683               2199 
   1790000   758.63706      87676.466     -202108.3       4970.4538     -197137.85      1.4689524      19683               2199 
   1790500   746.94467      82543.441     -202179.17      4893.8474     -197285.33      1.4689524      19683               2199 
   1791000   737.00808      83935.415     -202263.29      4828.7447     -197434.54      1.4689524      19683               2199 
   1791500   721.32002      84583.23      -202309.38      4725.9593     -197583.42      1.4689524      19683               2199 
   1792000   712.50237      84755.238     -202392.18      4668.1877     -197724         1.4689524      19683               2199 
   1792500   706.95774      77202.304     -202526.9       4631.8602     -197895.04      1.4689524      19683               2199 
   1793000   702.10845      79871.521     -202622.19      4600.0886     -198022.1       1.4689524      19683               2199 
   1793500   683.49786      77529.768     -202652.64      4478.1553     -198174.49      1.4689524      19683               2199 
   1794000   691.33495      78660.223     -202844.28      4529.5025     -198314.77      1.4689524      19683               2199 
   1794500   667.67296      74297.723     -202854.01      4374.4734     -198479.53      1.4689524      19683               2199 
   1795000   636.98429      72218.251     -202798.04      4173.4068     -198624.63      1.4689524      19683               2199 
   1795500   649.64081      71996.544     -203019.93      4256.33       -198763.6       1.4689524      19683               2199 
   1796000   644.41268      71134.269     -203135.3       4222.0762     -198913.22      1.4689524      19683               2199 
   1796500   619.83565      77407.512     -203127.06      4061.0519     -199066.01      1.4689524      19683               2199 
   1797000   609.08876      68668.566     -203187.51      3990.6402     -199196.87      1.4689524      19683               2199 
   1797500   597.06061      67454.785     -203259.02      3911.8339     -199347.18      1.4689524      19683               2199 
   1798000   588.68727      68239.226     -203330.38      3856.9733     -199473.4       1.4689524      19683               2199 
   1798500   576.97151      68243.014     -203400         3780.2138     -199619.79      1.4689524      19683               2199 
   1799000   562.59827      64670.951     -203464.02      3686.0429     -199777.98      1.4689524      19683               2199 
   1799500   566.68742      63988.045     -203625.34      3712.8343     -199912.51      1.4689524      19683               2199 
   1800000   558.60868      59361.948     -203722.39      3659.9038     -200062.49      1.4689524      19683               2199 
   1800500   532.06451      64780.36      -203681.68      3485.9912     -200195.69      1.4689524      19683               2199 
   1801000   530.9645       60707.18      -203810.11      3478.7841     -200331.33      1.4689524      19683               2199 
   1801500   512.46545      60953.828     -203832.77      3357.5816     -200475.19      1.4689524      19683               2199 
   1802000   498.21977      61016.353     -203883.24      3264.2465     -200618.99      1.4689524      19683               2199 
   1802500   491.47715      58489.895     -203995.41      3220.0701     -200775.34      1.4689524      19683               2199 
   1803000   485.7573       55321.613     -204096.76      3182.5947     -200914.17      1.4689524      19683               2199 
   1803500   470.30307      58179.881     -204134.6       3081.3413     -201053.26      1.4689524      19683               2199 
   1804000   464.09572      55045.335     -204225.97      3040.6719     -201185.3       1.4689524      19683               2199 
   1804500   447.18342      58356.339     -204253.93      2929.8655     -201324.07      1.4689524      19683               2199 
   1805000   449.88622      51096.91      -204421.38      2947.5737     -201473.8       1.4689524      19683               2199 
   1805500   429.24061      54279.659     -204423.42      2812.3074     -201611.12      1.4689524      19683               2199 
   1806000   415.50625      52280.556     -204471.84      2722.3224     -201749.52      1.4689524      19683               2199 
   1806500   417.26299      48189.368     -204630.73      2733.8322     -201896.89      1.4689524      19683               2199 
   1807000   405.05228      45566.528     -204680.86      2653.8298     -202027.03      1.4689524      19683               2199 
   1807500   383.95913      45700.601     -204695.37      2515.6313     -202179.74      1.4689524      19683               2199 
   1808000   387.29468      49392.135     -204841.06      2537.4852     -202303.58      1.4689524      19683               2199 
   1808500   370.45687      42398.575     -204862.25      2427.1669     -202435.08      1.4689524      19683               2199 
   1809000   358.28611      47264.105     -204937.09      2347.4263     -202589.66      1.4689524      19683               2199 
   1809500   354.71365      40447.37      -205067.87      2324.0201     -202743.85      1.4689524      19683               2199 
   1810000   337.94722      41582.387     -205085.73      2214.1695     -202871.56      1.4689524      19683               2199 
   1810063   342.86538      37047.02      -205134.37      2246.3924     -202887.98      1.4689524      19683               2199 
Loop time of 3831.1 on 48 procs for 80000 steps with 2199 atoms

Performance: 0.180 ns/day, 133.024 hours/ns, 20.882 timesteps/s, 45.919 katom-step/s
99.4% CPU use with 12 MPI tasks x 4 OpenMP threads

MPI task timing breakdown:
Section |  min time  |  avg time  |  max time  |%varavg| %total
---------------------------------------------------------------
Pair    | 3196.1     | 3245.8     | 3290.8     |  48.6 | 84.72
Neigh   | 16.651     | 16.816     | 17.018     |   2.7 |  0.44
Comm    | 39.948     | 85.046     | 134.66     | 300.0 |  2.22
Output  | 0.020789   | 0.024189   | 0.028973   |   1.4 |  0.00
Modify  | 481.32     | 481.63     | 481.91     |   0.8 | 12.57
Other   |            | 1.837      |            |       |  0.05

Nlocal:         183.25 ave         194 max         176 min
Histogram: 2 1 2 2 0 2 2 0 0 1
Nghost:        5014.75 ave        5041 max        4977 min
Histogram: 1 0 1 2 2 0 1 0 2 3
Neighs:         133296 ave      140587 max      128541 min
Histogram: 2 0 4 1 1 0 3 0 0 1

Total # of neighbors = 1599558
Ave neighs/atom = 727.40246
Neighbor list builds = 563
Dangerous builds = 0
=== Phase 6: Final Equilibration at 300 K ===
Setting up Verlet run ...
  Unit style    : real
  Current step  : 1810063
  Time step     : 0.1
Per MPI rank memory allocation (min/avg/max) = 357.3 | 362.2 | 366.4 Mbytes
   Step          Temp          Press          PotEng         KinEng         TotEng        Density         Volume        Atoms   
   1810063   342.86538      37047.148     -205134.37      2246.3924     -202887.97      1.4689524      19683               2199 
   1810500   336.78378      43082.673     -205138.83      2206.5468     -202932.29      1.4689524      19683               2199 
   1811000   332.33783      38863.818     -205171.77      2177.4178     -202994.35      1.4689524      19683               2199 
   1811500   319.69859      40983.836     -205151.13      2094.6078     -203056.52      1.4689524      19683               2199 
   1812000   320.25427      34384.388     -205221.88      2098.2485     -203123.63      1.4689524      19683               2199 
   1812500   320.68303      36660.982     -205301.22      2101.0576     -203200.16      1.4689524      19683               2199 
   1813000   311.1704       37051.265     -205291.86      2038.7326     -203253.13      1.4689524      19683               2199 
   1813500   307.78045      38991.511     -205324.33      2016.5223     -203307.81      1.4689524      19683               2199 
   1814000   303.69819      39033.497     -205355.34      1989.776      -203365.56      1.4689524      19683               2199 
   1814500   309.51331      37158.497     -205437.41      2027.8756     -203409.53      1.4689524      19683               2199 
   1815000   295.5877       37018.787     -205374.87      1936.6376     -203438.23      1.4689524      19683               2199 
   1815500   301.92391      36499.212     -205429.48      1978.1513     -203451.33      1.4689524      19683               2199 
   1816000   297.67136      35253.752     -205401.45      1950.2893     -203451.16      1.4689524      19683               2199 
   1816500   297.82032      36391.415     -205417.45      1951.2652     -203466.18      1.4689524      19683               2199 
   1817000   295.03936      33579.645     -205415.36      1933.0449     -203482.32      1.4689524      19683               2199 
   1817500   306.42203      37946.044     -205475.3       2007.6222     -203467.68      1.4689524      19683               2199 
   1818000   303.37896      39215.767     -205470.78      1987.6845     -203483.09      1.4689524      19683               2199 
   1818500   295.44212      35093.635     -205432.22      1935.6837     -203496.54      1.4689524      19683               2199 
   1819000   303.94084      32528.398     -205479.48      1991.3658     -203488.11      1.4689524      19683               2199 
   1819500   301.62389      33975.205     -205434.98      1976.1856     -203458.8       1.4689524      19683               2199 
   1820000   306.67494      35156.494     -205443.92      2009.2792     -203434.64      1.4689524      19683               2199 
   1820500   311.64114      36008.688     -205466.46      2041.8168     -203424.65      1.4689524      19683               2199 
   1821000   294.58874      35811.466     -205361         1930.0925     -203430.91      1.4689524      19683               2199 
   1821500   306.96084      40526.697     -205461.75      2011.1523     -203450.59      1.4689524      19683               2199 
   1822000   304.64602      33306.673     -205456.42      1995.986      -203460.43      1.4689524      19683               2199 
   1822500   302.85477      31428.863     -205453.03      1984.2501     -203468.78      1.4689524      19683               2199 
   1823000   297.69161      33263.368     -205430.75      1950.422      -203480.32      1.4689524      19683               2199 
   1823500   299.60562      33551.249     -205441.09      1962.9622     -203478.13      1.4689524      19683               2199 
   1824000   300.33469      38463.742     -205461.89      1967.739      -203494.15      1.4689524      19683               2199 
   1824500   304.44973      37311.885     -205471.67      1994.7        -203476.97      1.4689524      19683               2199 
   1825000   297.17169      37911.557     -205413.74      1947.0155     -203466.73      1.4689524      19683               2199 
   1825500   299.89686      30927.722     -205428.57      1964.8704     -203463.7       1.4689524      19683               2199 
   1826000   294.6507       36599.296     -205419.57      1930.4985     -203489.07      1.4689524      19683               2199 
   1826500   294.38821      34720.427     -205453.27      1928.7787     -203524.49      1.4689524      19683               2199 
   1827000   293.71404      36051.93      -205444.63      1924.3617     -203520.27      1.4689524      19683               2199 
   1827500   294.42213      34012.416     -205453.53      1929.0009     -203524.53      1.4689524      19683               2199 
   1828000   293.18636      34021.996     -205428.34      1920.9044     -203507.43      1.4689524      19683               2199 
   1828500   299.48009      36051.934     -205457.56      1962.1398     -203495.42      1.4689524      19683               2199 
   1829000   298.94756      35490.416     -205429.39      1958.6508     -203470.74      1.4689524      19683               2199 
   1829500   307.88139      35888.766     -205459.59      2017.1836     -203442.41      1.4689524      19683               2199 
   1830000   304.37439      38170.751     -205378.31      1994.2064     -203384.11      1.4689524      19683               2199 
   1830063   305.70713      34773.685     -205383.07      2002.9382     -203380.13      1.4689524      19683               2199 
Loop time of 940.827 on 48 procs for 20000 steps with 2199 atoms

Performance: 0.184 ns/day, 130.670 hours/ns, 21.258 timesteps/s, 46.746 katom-step/s
99.4% CPU use with 12 MPI tasks x 4 OpenMP threads

MPI task timing breakdown:
Section |  min time  |  avg time  |  max time  |%varavg| %total
---------------------------------------------------------------
Pair    | 779.29     | 801.93     | 812.28     |  31.2 | 85.24
Neigh   | 0.72683    | 0.73466    | 0.74165    |   0.5 |  0.08
Comm    | 9.3901     | 19.603     | 42.163     | 198.7 |  2.08
Output  | 0.0052096  | 0.0060604  | 0.0072678  |   0.7 |  0.00
Modify  | 117.92     | 118.09     | 118.2      |   0.8 | 12.55
Other   |            | 0.4596     |            |       |  0.05

Nlocal:         183.25 ave         192 max         174 min
Histogram: 1 0 1 1 3 2 1 2 0 1
Nghost:        5013.92 ave        5075 max        4975 min
Histogram: 1 3 1 2 0 2 1 1 0 1
Neighs:         133306 ave      139166 max      127120 min
Histogram: 1 1 0 2 2 2 1 2 0 1

Total # of neighbors = 1599671
Ave neighs/atom = 727.45384
Neighbor list builds = 25
Dangerous builds = 0
System init for write_data ...
System init for write_restart ...
=== Sol-Gel Simulation Complete for pH 6.5 ===
Total wall time: 24:00:01
=== LAMMPS Sol-Gel Run Completed ===
Date:     Tue Jun 23 08:47:58 PM WIB 2026
