=== Starting LAMMPS Sol-Gel Run ===
pH value: 7.0
Date:     Mon Jun 22 08:47:52 PM WIB 2026
LAMMPS (29 Aug 2024)
  using 4 OpenMP thread(s) per MPI task
Reading data file ...
  orthogonal box = (0 0 0) to (37.183304 37.183304 37.183304)
  2 by 2 by 3 MPI processor grid
  reading atoms ...
  2283 atoms
  read_data CPU = 0.008 seconds
=== Phase 1: Energy Minimization ===

CITE-CITE-CITE-CITE-CITE-CITE-CITE-CITE-CITE-CITE-CITE-CITE-CITE

Your simulation uses code contributions which should be cited:
- Type Label Framework: https://doi.org/10.1021/acs.jpcb.3c08419
- pair reaxff command: doi:10.1016/j.parco.2011.08.005
- fix qeq/reaxff command: doi:10.1016/j.parco.2011.08.005
The log file lists these citations in BibTeX format.

CITE-CITE-CITE-CITE-CITE-CITE-CITE-CITE-CITE-CITE-CITE-CITE-CITE

Neighbor list info ...
  update: every = 1 steps, delay = 0 steps, check = yes
  max neighbors/atom: 2000, page size: 100000
  master list distance cutoff = 12
  ghost atom cutoff = 12
  binsize = 6, bins = 7 7 7
  2 neighbor lists, perpetual/occasional/extra = 2 0 0
  (1) pair reaxff, perpetual
      attributes: half, newton off, ghost
      pair build: half/bin/ghost/newtoff
      stencil: full/ghost/bin/3d
      bin: standard
  (2) fix qeq/reaxff, perpetual, copy from (1)
      attributes: half, newton off
      pair build: copy
      stencil: none
      bin: none
Setting up cg style minimization ...
  Unit style    : real
  Current step  : 0
Per MPI rank memory allocation (min/avg/max) = 348.9 | 354.3 | 359.5 Mbytes
   Step          Temp          Press          PotEng         KinEng         TotEng        Density         Volume        Atoms   
         0   0              171149.62     -125747.29      0             -125747.29      0.57870569     51409.565           2283 
        71   0             -2590.7406     -187560.57      0             -187560.57      0.57870569     51409.565           2283 
Loop time of 2.01836 on 48 procs for 71 steps with 2283 atoms

98.4% CPU use with 12 MPI tasks x 4 OpenMP threads

Minimization stats:
  Stopping criterion = energy tolerance
  Energy initial, next-to-last, final = 
      -125747.28819067   -187552.63379944   -187560.56949296
  Force two-norm initial, final = 9039.4839 555.0091
  Force max component initial, final = 1023.61 202.72955
  Final line search alpha, max atom move = 0.00043122824 0.087422707
  Iterations, force evaluations = 71 100

MPI task timing breakdown:
Section |  min time  |  avg time  |  max time  |%varavg| %total
---------------------------------------------------------------
Pair    | 1.0737     | 1.2481     | 1.4869     |   9.8 | 61.84
Neigh   | 0.0062259  | 0.0068617  | 0.009509   |   1.3 |  0.34
Comm    | 0.014595   | 0.25302    | 0.42701    |  21.7 | 12.54
Output  | 0          | 0          | 0          |   0.0 |  0.00
Modify  | 0.50319    | 0.50562    | 0.5065     |   0.1 | 25.05
Other   |            | 0.004726   |            |       |  0.23

Nlocal:         190.25 ave         214 max         155 min
Histogram: 1 0 0 0 3 2 2 2 1 1
Nghost:        2774.42 ave        2856 max        2738 min
Histogram: 2 4 0 3 1 1 0 0 0 1
Neighs:        50482.2 ave       56053 max       39799 min
Histogram: 1 0 0 2 0 1 2 2 0 4

Total # of neighbors = 605786
Ave neighs/atom = 265.34647
Neighbor list builds = 1
Dangerous builds = 0
=== Phase 2: Compression to Liquid Density at 300 K ===
Setting up Verlet run ...
  Unit style    : real
  Current step  : 71
  Time step     : 0.1
Per MPI rank memory allocation (min/avg/max) = 347.8 | 353.2 | 358.5 Mbytes
   Step          Temp          Press          PotEng         KinEng         TotEng        Density         Volume        Atoms   
        71   300           -776.07225     -187560.57      2040.6626     -185519.9       0.57870569     51409.565           2283 
       500   297.3745      -853.30965     -187503.16      2022.8034     -185480.36      0.58902544     50508.867           2283 
      1000   366.69804     -182.94438     -187990.61      2494.3565     -185496.25      0.60136514     49472.451           2283 
      1500   452.62655      1350.1818     -188790.97      3078.8602     -185712.11      0.61405194     48450.311           2283 
      2000   488.94801      1281.6654     -189438.68      3325.9263     -186112.75      0.62709813     47442.348           2283 
      2500   493.38487      364.52142     -189956.12      3356.1068     -186600.01      0.64051652     46448.463           2283 
      3000   486.24362      2137.6016     -190434.07      3307.5305     -187126.54      0.65432049     45468.556           2283 
      3500   474.25569      464.78807     -190896.29      3225.9861     -187670.3       0.66852398     44502.529           2283 
      4000   479.29088      1067.1646     -191467.24      3260.2365     -188207.01      0.68314156     43550.282           2283 
      4500   441.82388      917.78339     -191747.75      3005.3782     -188742.37      0.69818842     42611.717           2283 
      5000   435.68677      370.97599     -192207.5       2963.6323     -189243.87      0.71368044     41686.735           2283 
      5500   418.79299      140.52113     -192580.63      2848.7172     -189731.91      0.72963421     40775.237           2283 
      6000   431.61143      1082.2555     -193148.84      2935.9109     -190212.93      0.74606706     39877.123           2283 
      6500   423.79744      163.13071     -193592.13      2882.7585     -190709.37      0.7629971      38992.295           2283 
      7000   414.46251      1253.3964     -194015.84      2819.2604     -191196.58      0.78044328     38120.653           2283 
      7500   410.12419      1164.4931     -194448.53      2789.7502     -191658.78      0.79842543     37262.099           2283 
      8000   374.92036      2932.2008     -194637.54      2550.2865     -192087.25      0.81696428     36416.534           2283 
      8500   370.91265      2219.0554     -194998.53      2523.0252     -192475.51      0.83608155     35583.859           2283 
      9000   354.31576      356.37757     -195229.8       2410.1297     -192819.67      0.85579997     34763.974           2283 
      9500   342.63169      1717.7978     -195459.48      2330.6522     -193128.83      0.87614336     33956.781           2283 
     10000   328.28081      6685.8366     -195637.28      2233.0345     -193404.24      0.89713667     33162.18            2283 
     10500   309.73105      3127.753      -195755.85      2106.8552     -193648.99      0.91880607     32380.073           2283 
     11000   309.35802      2268.5912     -195949.22      2104.3178     -193844.9       0.94117899     31610.361           2283 
     11500   303.03941      2293.1753     -196063.11      2061.3373     -194001.77      0.96428423     30852.944           2283 
     12000   301.88525      3516.8257     -196188.97      2053.4864     -194135.48      0.98815198     30107.725           2283 
     12500   305.98036      4602.0882     -196331.32      2081.3422     -194249.98      1.012814       29374.602           2283 
     13000   305.36802      2848.1571     -196417.26      2077.1769     -194340.09      1.0383035      28653.479           2283 
     13500   303.22219      4034.1336     -196495.42      2062.5806     -194432.84      1.0646556      27944.255           2283 
     14000   306.82588      6921.3263     -196589.32      2087.0937     -194502.23      1.0919071      27246.832           2283 
     14500   312.23666      8077.6299     -196689.19      2123.8989     -194565.29      1.1200966      26561.11            2283 
     15000   309.17822      11171.555     -196729.12      2103.0947     -194626.02      1.1492648      25886.991           2283 
     15500   318.15298      13091.996     -196862.41      2164.1429     -194698.27      1.1794547      25224.376           2283 
     16000   318.70931      15407.034     -196923.43      2167.9272     -194755.5       1.2107113      24573.165           2283 
     16500   322.73655      17632.233     -196984.65      2195.3213     -194789.33      1.2430821      23933.26            2283 
     17000   323.86772      24562.759     -196996.01      2203.0158     -194793         1.2766173      23304.562           2283 
     17500   321.72153      29977.236     -196971.19      2188.4169     -194782.77      1.3113698      22686.971           2283 
     18000   329.96754      38222.268     -196964.96      2244.508      -194720.46      1.3473951      22080.389           2283 
     18500   340.41269      49808.371     -196922.11      2315.5581     -194606.55      1.3847522      21484.717           2283 
     19000   345.54474      65517.666     -196752.46      2350.4674     -194402         1.4235031      20899.855           2283 
     19500   363.4857       89175.847     -196525.33      2472.5055     -194052.82      1.4637134      20325.705           2283 
     20000   376.26777      116438.19     -196124.88      2559.4519     -193565.43      1.5054527      19762.168           2283 
     20071   379.87341      120609.3      -196066.04      2583.9781     -193482.06      1.5115078      19683               2283 
Loop time of 672.591 on 48 procs for 20000 steps with 2283 atoms

Performance: 0.257 ns/day, 93.415 hours/ns, 29.736 timesteps/s, 67.887 katom-step/s
99.3% CPU use with 12 MPI tasks x 4 OpenMP threads

MPI task timing breakdown:
Section |  min time  |  avg time  |  max time  |%varavg| %total
---------------------------------------------------------------
Pair    | 436.77     | 467.34     | 565.45     | 170.0 | 69.48
Neigh   | 1.8679     | 2.0122     | 2.6148     |  15.1 |  0.30
Comm    | 6.4743     | 104.51     | 135.16     | 359.4 | 15.54
Output  | 0.0085513  | 0.0096298  | 0.010958   |   0.7 |  0.00
Modify  | 97.751     | 98.344     | 98.554     |   2.0 | 14.62
Other   |            | 0.3757     |            |       |  0.06

Nlocal:         190.25 ave         200 max         179 min
Histogram: 1 1 0 1 2 3 1 1 0 2
Nghost:        5188.25 ave        5219 max        5161 min
Histogram: 3 1 1 1 0 2 0 1 0 3
Neighs:         143096 ave      151338 max      134363 min
Histogram: 1 1 1 0 3 1 3 0 0 2

Total # of neighbors = 1717154
Ave neighs/atom = 752.14805
Neighbor list builds = 138
Dangerous builds = 0
Setting up Verlet run ...
  Unit style    : real
  Current step  : 20071
  Time step     : 0.1
Per MPI rank memory allocation (min/avg/max) = 369.6 | 374.4 | 379.9 Mbytes
   Step          Temp          Press          PotEng         KinEng         TotEng        Density         Volume        Atoms   
     20071   379.87341      120839.94     -196064.18      2583.9781     -193480.2       1.5115078      19683               2283 
     20500   357.77571      105354.32     -196202.59      2433.665      -193768.92      1.5115078      19683               2283 
     21000   340.77612      94289.042     -196391.3       2318.0302     -194073.27      1.5115078      19683               2283 
     21500   327.45412      93264.892     -196561.52      2227.4112     -194334.1       1.5115078      19683               2283 
     22000   320.96192      90588.044     -196732.76      2183.2499     -194549.51      1.5115078      19683               2283 
     22500   314.52377      81519.769     -196864.74      2139.4562     -194725.28      1.5115078      19683               2283 
     23000   300.76545      74660.501     -196930.68      2045.8693     -194884.82      1.5115078      19683               2283 
     23500   294.24026      77058.813     -197009.73      2001.4836     -195008.25      1.5115078      19683               2283 
     24000   285.39931      73750.194     -197047.06      1941.3456     -195105.72      1.5115078      19683               2283 
     24500   290.02612      75820.574     -197128.43      1972.8182     -195155.61      1.5115078      19683               2283 
     25000   293.60653      74909.632     -197160.81      1997.1729     -195163.64      1.5115078      19683               2283 
     25500   293.47368      78098.396     -197156.33      1996.2692     -195160.07      1.5115078      19683               2283 
     26000   294.18453      78313.788     -197129.16      2001.1045     -195128.05      1.5115078      19683               2283 
     26500   295.93319      77700.465     -197111.74      2012.9992     -195098.74      1.5115078      19683               2283 
     27000   313.44882      72981.841     -197185.02      2132.1442     -195052.87      1.5115078      19683               2283 
     27500   310.60758      72459.135     -197163.88      2112.8175     -195051.07      1.5115078      19683               2283 
     28000   306.42616      75901.865     -197166.21      2084.3747     -195081.84      1.5115078      19683               2283 
     28500   301.23785      73341.031     -197173.24      2049.0826     -195124.16      1.5115078      19683               2283 
     29000   299.28223      74491.465     -197231.76      2035.7801     -195195.98      1.5115078      19683               2283 
     29500   294.83813      70551.044     -197239.55      2005.5504     -195234         1.5115078      19683               2283 
     30000   290.7187       70168.748     -197241.74      1977.5292     -195264.21      1.5115078      19683               2283 
     30071   299.95766      69982.987     -197311.12      2040.3745     -195270.74      1.5115078      19683               2283 
Loop time of 613.356 on 48 procs for 10000 steps with 2283 atoms

Performance: 0.141 ns/day, 170.377 hours/ns, 16.304 timesteps/s, 37.221 katom-step/s
99.5% CPU use with 12 MPI tasks x 4 OpenMP threads

MPI task timing breakdown:
Section |  min time  |  avg time  |  max time  |%varavg| %total
---------------------------------------------------------------
Pair    | 426.73     | 447.82     | 531.94     | 156.5 | 73.01
Neigh   | 0.46727    | 0.50043    | 0.67084    |   9.2 |  0.08
Comm    | 3.6345     | 87.64      | 108.72     | 353.6 | 14.29
Output  | 0.0037664  | 0.0042389  | 0.0048617  |   0.4 |  0.00
Modify  | 76.934     | 77.185     | 77.292     |   1.0 | 12.58
Other   |            | 0.2057     |            |       |  0.03

Nlocal:         190.25 ave         206 max         185 min
Histogram: 3 5 1 2 0 0 0 0 0 1
Nghost:        5195.25 ave        5234 max        5162 min
Histogram: 1 2 0 2 3 1 0 1 1 1
Neighs:         143597 ave      155599 max      139627 min
Histogram: 3 4 2 2 0 0 0 0 0 1

Total # of neighbors = 1723164
Ave neighs/atom = 754.78055
Neighbor list builds = 15
Dangerous builds = 0
=== Phase 3: Heating 300 -> 2000 K ===
Setting up Verlet run ...
  Unit style    : real
  Current step  : 30071
  Time step     : 0.1
Per MPI rank memory allocation (min/avg/max) = 369 | 374.4 | 380.8 Mbytes
   Step          Temp          Press          PotEng         KinEng         TotEng        Density         Volume        Atoms   
     30071   299.95766      69982.903     -197311.12      2040.3745     -195270.74      1.5115078      19683               2283 
     30500   296.70421      73161.488     -197270.36      2018.2439     -195252.12      1.5115078      19683               2283 
     31000   300.23234      70732.411     -197244.43      2042.243      -195202.18      1.5115078      19683               2283 
     31500   306.07202      67780.65      -197199.48      2081.9657     -195117.51      1.5115078      19683               2283 
     32000   312.86376      76237.138     -197192.17      2128.1645     -195064         1.5115078      19683               2283 
     32500   331.97418      72650.402     -197249.79      2258.1576     -194991.64      1.5115078      19683               2283 
     33000   342.06879      74693.186     -197239.14      2326.8232     -194912.31      1.5115078      19683               2283 
     33500   344.32492      73281.687     -197190.08      2342.1699     -194847.91      1.5115078      19683               2283 
     34000   357.62629      74793.175     -197198.69      2432.6486     -194766.04      1.5115078      19683               2283 
     34500   354.15695      75207.459     -197090.5       2409.0494     -194681.45      1.5115078      19683               2283 
     35000   366.72747      77583.563     -197085.57      2494.5567     -194591.01      1.5115078      19683               2283 
     35500   375.50515      78634.682     -197032.33      2554.2643     -194478.07      1.5115078      19683               2283 
     36000   369.55123      80627.392     -196884.46      2513.7645     -194370.69      1.5115078      19683               2283 
     36500   397.9177       77795.371     -196970.09      2706.7192     -194263.37      1.5115078      19683               2283 
     37000   399.46237      80364.327     -196871.74      2717.2263     -194154.51      1.5115078      19683               2283 
     37500   405.39277      76744.162     -196798.69      2757.5662     -194041.12      1.5115078      19683               2283 
     38000   411.28341      82403.488     -196719.47      2797.6355     -193921.83      1.5115078      19683               2283 
     38500   417.51612      76770.101     -196657.05      2840.0317     -193817.02      1.5115078      19683               2283 
     39000   442.34643      77508.764     -196699.7       3008.9327     -193690.77      1.5115078      19683               2283 
     39500   450.16889      82471.23      -196623.77      3062.1427     -193561.63      1.5115078      19683               2283 
     40000   449.62508      84185.523     -196497.35      3058.4436     -193438.9       1.5115078      19683               2283 
     40500   468.42802      85854.387     -196524.24      3186.3451     -193337.89      1.5115078      19683               2283 
     41000   464.59613      85716.655     -196385.3       3160.2797     -193225.02      1.5115078      19683               2283 
     41500   485.04889      83635.454     -196409.92      3299.4037     -193110.52      1.5115078      19683               2283 
     42000   484.73893      91020.113     -196302.16      3297.2953     -193004.87      1.5115078      19683               2283 
     42500   496.98584      89045.807     -196277.57      3380.6013     -192896.97      1.5115078      19683               2283 
     43000   509.519        85939.97      -196265.21      3465.8545     -192799.35      1.5115078      19683               2283 
     43500   534.99503      90689.089     -196329.25      3639.1478     -192690.1       1.5115078      19683               2283 
     44000   540.62853      96559.549     -196283.76      3677.468      -192606.29      1.5115078      19683               2283 
     44500   552.7033       91143.576     -196291.87      3759.6031     -192532.27      1.5115078      19683               2283 
     45000   544.61676      101972.03     -196165.95      3704.5968     -192461.35      1.5115078      19683               2283 
     45500   573.87831      91744.671     -196289.44      3903.64       -192385.8       1.5115078      19683               2283 
     46000   569.46527      99143.586     -196201.53      3873.6215     -192327.91      1.5115078      19683               2283 
     46500   568.67408      99646.35      -196136.97      3868.2397     -192268.73      1.5115078      19683               2283 
     47000   579.574        98431.544     -196145.24      3942.3832     -192202.85      1.5115078      19683               2283 
     47500   588.44235      94328         -196096.7       4002.7076     -192094         1.5115078      19683               2283 
     48000   606.15077      100073.51     -196109.18      4123.1639     -191986.01      1.5115078      19683               2283 
     48500   598.69238      97910.484     -195974.94      4072.4304     -191902.5       1.5115078      19683               2283 
     49000   618.69787      95189.094     -196021.79      4208.5119     -191813.28      1.5115078      19683               2283 
     49500   617.12946      101405.7      -195901.81      4197.8433     -191703.97      1.5115078      19683               2283 
     50000   613.16685      106852.65     -195780.07      4170.8887     -191609.18      1.5115078      19683               2283 
     50500   630.4986       103317.89     -195792.89      4288.7829     -191504.11      1.5115078      19683               2283 
     51000   651.4481       101302.62     -195832.41      4431.2858     -191401.12      1.5115078      19683               2283 
     51500   643.833        103786.94     -195676.57      4379.4864     -191297.08      1.5115078      19683               2283 
     52000   668.11927      104687.6      -195751.34      4544.6866     -191206.66      1.5115078      19683               2283 
     52500   674.85643      104620.04     -195692.37      4590.5142     -191101.86      1.5115078      19683               2283 
     53000   687.83276      100468.05     -195679.64      4678.7818     -191000.86      1.5115078      19683               2283 
     53500   698.43054      100590.18     -195645.9       4750.8702     -190895.03      1.5115078      19683               2283 
     54000   697.95933      109298.09     -195543.35      4747.6649     -190795.68      1.5115078      19683               2283 
     54500   697.58853      111294.57     -195426.29      4745.1427     -190681.15      1.5115078      19683               2283 
     55000   700.0521       113307.41     -195352.29      4761.9003     -190590.39      1.5115078      19683               2283 
     55500   697.58926      108590.29     -195229.66      4745.1476     -190484.51      1.5115078      19683               2283 
     56000   722.00069      113200.73     -195295.79      4911.1992     -190384.59      1.5115078      19683               2283 
     56500   744.06016      111929.95     -195335.09      5061.2523     -190273.84      1.5115078      19683               2283 
     57000   763.68679      117517.12     -195383.34      5194.7568     -190188.59      1.5115078      19683               2283 
     57500   766.89966      119912.87     -195309.07      5216.6114     -190092.46      1.5115078      19683               2283 
     58000   769.60922      117342.78     -195231.2       5235.0424     -189996.15      1.5115078      19683               2283 
     58500   784.59051      118446.86     -195243.97      5336.9483     -189907.03      1.5115078      19683               2283 
     59000   822.51722      119357.49     -195441.41      5594.9337     -189846.48      1.5115078      19683               2283 
     59500   800.64037      121282.73     -195251.78      5446.1228     -189805.65      1.5115078      19683               2283 
     60000   813.36983      119531.48     -195310.45      5532.7112     -189777.74      1.5115078      19683               2283 
     60500   812.11953      125584.13     -195262.31      5524.2064     -189738.1       1.5115078      19683               2283 
     61000   816.677        123074.09     -195213.97      5555.2073     -189658.76      1.5115078      19683               2283 
     61500   864.4682       122946.37     -195404.41      5880.293      -189524.11      1.5115078      19683               2283 
     62000   859.70001      128367.94     -195258.85      5847.8588     -189410.99      1.5115078      19683               2283 
     62500   873.75045      120467.58     -195327.87      5943.4328     -189384.43      1.5115078      19683               2283 
     63000   862.4712       126234.16     -195318.95      5866.7089     -189452.24      1.5115078      19683               2283 
     63500   874.59806      123640.23     -195530.35      5949.1984     -189581.15      1.5115078      19683               2283 
     64000   852.35808      118959.19     -195469.79      5797.9174     -189671.87      1.5115078      19683               2283 
     64500   873.58417      129403.02     -195587.66      5942.3017     -189645.36      1.5115078      19683               2283 
     65000   894.23685      125814.23     -195693.88      6082.7855     -189611.1       1.5115078      19683               2283 
     65500   891.76173      127607.9      -195625.38      6065.9493     -189559.43      1.5115078      19683               2283 
     66000   895.96662      124796.67     -195565.5       6094.5518     -189470.95      1.5115078      19683               2283 
     66500   899.154        120910.84     -195483.22      6116.233      -189366.99      1.5115078      19683               2283 
     67000   930.01248      129140.58     -195590.62      6326.1388     -189264.48      1.5115078      19683               2283 
     67500   922.38367      131117.02     -195434.2       6274.2461     -189159.96      1.5115078      19683               2283 
     68000   935.12328      130401.37     -195436.14      6360.9035     -189075.24      1.5115078      19683               2283 
     68500   980.69399      137333.76     -195645.21      6670.8851     -188974.32      1.5115078      19683               2283 
     69000   957.25217      132510.06     -195461.33      6511.4289     -188949.9       1.5115078      19683               2283 
     69500   971.80265      137632.96     -195547.52      6610.4043     -188937.12      1.5115078      19683               2283 
     70000   973.10544      134187.15     -195589.75      6619.2661     -188970.49      1.5115078      19683               2283 
     70500   985.16869      136450.39     -195751.01      6701.3229     -189049.68      1.5115078      19683               2283 
     71000   971.56241      136833.16     -195792.24      6608.7701     -189183.47      1.5115078      19683               2283 
     71500   981.09704      129653.42     -195957.62      6673.6267     -189284         1.5115078      19683               2283 
     72000   993.89252      132012.87     -196103.69      6760.6642     -189343.02      1.5115078      19683               2283 
     72500   989.44455      136174.82     -196064.35      6730.4082     -189333.94      1.5115078      19683               2283 
     73000   1001.2907      132496.65     -196067.8       6810.9883     -189256.81      1.5115078      19683               2283 
     73500   1069.2129      140349.04     -196343.26      7273.0094     -189070.25      1.5115078      19683               2283 
     74000   1066.7491      141213.89     -196209.8       7256.2498     -188953.55      1.5115078      19683               2283 
     74500   1078.4205      140337.84     -196281         7335.641      -188945.36      1.5115078      19683               2283 
     75000   1051.2754      135277.36     -196118.67      7150.9943     -188967.67      1.5115078      19683               2283 
     75500   1071.808       140633.94     -196261.36      7290.6618     -188970.7       1.5115078      19683               2283 
     76000   1068.089       146547.85     -196204.13      7265.3643     -188938.77      1.5115078      19683               2283 
     76500   1107.3899      140585.5      -196472.33      7532.6969     -188939.64      1.5115078      19683               2283 
     77000   1065.6427      157072.59     -196189.82      7248.7242     -188941.09      1.5115078      19683               2283 
     77500   1075.8191      143955.74     -196211.4       7317.9459     -188893.45      1.5115078      19683               2283 
     78000   1114.6866      146307.49     -196392.93      7582.3309     -188810.6       1.5115078      19683               2283 
     78500   1143.9308      143643.37     -196428.58      7781.256      -188647.33      1.5115078      19683               2283 
     79000   1168.1417      152325.62     -196439.42      7945.9437     -188493.48      1.5115078      19683               2283 
     79500   1138.1293      155484.88     -196147.61      7741.793      -188405.82      1.5115078      19683               2283 
     80000   1172.6225      152632.78     -196335.4       7976.423      -188358.98      1.5115078      19683               2283 
     80500   1159.5448      151122.31     -196225.3       7887.4655     -188337.83      1.5115078      19683               2283 
     81000   1184.3828      148003.98     -196387.22      8056.4189     -188330.8       1.5115078      19683               2283 
     81500   1162.2678      150682.48     -196198.05      7905.9881     -188292.06      1.5115078      19683               2283 
     82000   1147.9305      160130.06     -196020.59      7808.4624     -188212.13      1.5115078      19683               2283 
     82500   1195.9873      155068.2      -196210.71      8135.3552     -188075.35      1.5115078      19683               2283 
     83000   1170.5161      158198.15     -195896.93      7962.0945     -187934.84      1.5115078      19683               2283 
     83500   1219.9123      150941.29     -196106.83      8298.0977     -187808.73      1.5115078      19683               2283 
     84000   1249.837       155051.46     -196197.64      8501.652      -187695.99      1.5115078      19683               2283 
     84500   1251.6126      157659.24     -196186.14      8513.7296     -187672.41      1.5115078      19683               2283 
     85000   1211.3861      153877.53     -195943.2       8240.1008     -187703.1       1.5115078      19683               2283 
     85500   1233.5921      157108.28     -196146.06      8391.1505     -187754.91      1.5115078      19683               2283 
     86000   1209.0213      151221.89     -196008.44      8224.0152     -187784.43      1.5115078      19683               2283 
     86500   1234.5988      154887.46     -196147.54      8397.9987     -187749.54      1.5115078      19683               2283 
     87000   1275.1856      156634.51     -196244.79      8674.0783     -187570.71      1.5115078      19683               2283 
     87500   1284.2841      164531        -196086.41      8735.9683     -187350.45      1.5115078      19683               2283 
     88000   1282.2511      170842.95     -195931.03      8722.1391     -187208.89      1.5115078      19683               2283 
     88500   1279.8374      167807.05     -195840.34      8705.721      -187134.62      1.5115078      19683               2283 
     89000   1314.4805      157181.48     -196001.27      8941.3703     -187059.9       1.5115078      19683               2283 
     89500   1284.1791      172550.69     -195722.92      8735.254      -186987.66      1.5115078      19683               2283 
     90000   1320.2137      171018.05     -195885.39      8980.3688     -186905.02      1.5115078      19683               2283 
     90500   1330.7156      169720.21     -195861.6       9051.8052     -186809.8       1.5115078      19683               2283 
     91000   1336.2298      168756.84     -195729.63      9089.314      -186640.32      1.5115078      19683               2283 
     91500   1360.5486      166450.56     -195691.16      9254.735      -186436.42      1.5115078      19683               2283 
     92000   1353.3657      169499.62     -195515.52      9205.8757     -186309.64      1.5115078      19683               2283 
     92500   1373.9324      172813.74     -195576.2       9345.7747     -186230.42      1.5115078      19683               2283 
     93000   1410.1482      161875.83     -195818.49      9592.1219     -186226.37      1.5115078      19683               2283 
     93500   1369.3811      165934.67     -195621.97      9314.816      -186307.16      1.5115078      19683               2283 
     94000   1384.4686      169724.18     -195990.47      9417.4443     -186573.03      1.5115078      19683               2283 
     94500   1355.6665      165861.89     -196043.34      9221.5265     -186821.81      1.5115078      19683               2283 
     95000   1341.9137      160890.71     -195974.24      9127.9769     -186846.26      1.5115078      19683               2283 
     95500   1359.5572      160700.74     -195957.95      9247.9913     -186709.96      1.5115078      19683               2283 
     96000   1393.0751      160014.7      -195965.66      9475.9877     -186489.67      1.5115078      19683               2283 
     96500   1374.5206      176535.7      -195630.91      9349.776      -186281.13      1.5115078      19683               2283 
     97000   1431.1387      174147.78     -195807.12      9734.9039     -186072.22      1.5115078      19683               2283 
     97500   1411.8687      173720.05     -195503.33      9603.8251     -185899.51      1.5115078      19683               2283 
     98000   1428.6693      181422.03     -195431.64      9718.1062     -185713.54      1.5115078      19683               2283 
     98500   1468.9298      175715.12     -195517.84      9991.9669     -185525.88      1.5115078      19683               2283 
     99000   1468.8586      181446.53     -195361.06      9991.4823     -185369.58      1.5115078      19683               2283 
     99500   1450.7611      180114.89     -195157.48      9868.3797     -185289.1       1.5115078      19683               2283 
    100000   1491.2907      171744.24     -195382.83      10144.071     -185238.76      1.5115078      19683               2283 
    100500   1506.6897      179138.2      -195433.33      10248.817     -185184.51      1.5115078      19683               2283 
    101000   1516.457       175092.97     -195477.28      10315.257     -185162.02      1.5115078      19683               2283 
    101500   1481.7095      190598.36     -195238.23      10078.897     -185159.34      1.5115078      19683               2283 
    102000   1517.534       179415.35     -195427.13      10322.583     -185104.54      1.5115078      19683               2283 
    102500   1509.149       179402.31     -195241.27      10265.546     -184975.72      1.5115078      19683               2283 
    103000   1533.4742      187844.14     -195192.96      10431.011     -184761.95      1.5115078      19683               2283 
    103500   1554.5378      189142.94     -195153.65      10574.29      -184579.36      1.5115078      19683               2283 
    104000   1528.6377      184062.4      -194828.22      10398.112     -184430.11      1.5115078      19683               2283 
    104500   1547.2625      187049.35     -194846.27      10524.802     -184321.47      1.5115078      19683               2283 
    105000   1572.4237      195818.5      -194928.57      10695.954     -184232.62      1.5115078      19683               2283 
    105500   1573.6024      184814.65     -194898.67      10703.972     -184194.69      1.5115078      19683               2283 
    106000   1596.1879      191435.57     -195021.73      10857.603     -184164.12      1.5115078      19683               2283 
    106500   1616.9025      192717.51     -195157.55      10998.508     -184159.04      1.5115078      19683               2283 
    107000   1633.7659      189754.45     -195324.43      11113.216     -184211.21      1.5115078      19683               2283 
    107500   1598.3378      193795.32     -195233.98      10872.227     -184361.75      1.5115078      19683               2283 
    108000   1576.5006      198223.86     -195262.44      10723.686     -184538.75      1.5115078      19683               2283 
    108500   1590.857       186383.47     -195411.99      10821.341     -184590.65      1.5115078      19683               2283 
    109000   1593.3236      187233        -195364.79      10838.12      -184526.67      1.5115078      19683               2283 
    109500   1603.8457      200256.58     -195249.61      10909.693     -184339.92      1.5115078      19683               2283 
    110000   1667.369       192708.11     -195421.6       11341.792     -184079.81      1.5115078      19683               2283 
    110500   1632.4777      193897.89     -194993.06      11104.453     -183888.6       1.5115078      19683               2283 
    111000   1690.218       196645.87     -195267.19      11497.215     -183769.97      1.5115078      19683               2283 
    111500   1689.3423      191619.35     -195170.11      11491.259     -183678.85      1.5115078      19683               2283 
    112000   1683.1543      197152.48     -195088.98      11449.167     -183639.82      1.5115078      19683               2283 
    112500   1707.1757      195693.06     -195244.92      11612.565     -183632.35      1.5115078      19683               2283 
    113000   1702.6826      200380.73     -195167.61      11582.002     -183585.61      1.5115078      19683               2283 
    113500   1708.2201      211628.13     -195000.06      11619.669     -183380.39      1.5115078      19683               2283 
    114000   1732.3055      209924.78     -194845.07      11783.503     -183061.57      1.5115078      19683               2283 
    114500   1781.9289      209866.65     -195016.44      12121.052     -182895.39      1.5115078      19683               2283 
    115000   1766.668       201107.01     -194875.14      12017.244     -182857.89      1.5115078      19683               2283 
    115500   1743.3361      211220.48     -194756.04      11858.536     -182897.51      1.5115078      19683               2283 
    116000   1758.929       198497.54     -194921.64      11964.602     -182957.04      1.5115078      19683               2283 
    116500   1724.3948      202396.59     -194796.72      11729.693     -183067.03      1.5115078      19683               2283 
    117000   1737.3686      208376.4      -194973.49      11817.944     -183155.55      1.5115078      19683               2283 
    117500   1751.8863      200324.72     -195128.08      11916.696     -183211.38      1.5115078      19683               2283 
    118000   1759.4323      203848.48     -195209.6       11968.025     -183241.57      1.5115078      19683               2283 
    118500   1746.0454      205600.71     -194990.74      11876.965     -183113.77      1.5115078      19683               2283 
    119000   1827.2004      204364.1      -195219.78      12428.998     -182790.78      1.5115078      19683               2283 
    119500   1820.9138      208900.83     -194938.01      12386.235     -182551.78      1.5115078      19683               2283 
    120000   1791.4307      209897.55     -194541.07      12185.685     -182355.39      1.5115078      19683               2283 
    120500   1857.1542      208072.71     -194808.58      12632.75      -182175.83      1.5115078      19683               2283 
    121000   1837.603       218201.76     -194540.07      12499.759     -182040.32      1.5115078      19683               2283 
    121500   1846.454       216325.6      -194595.52      12559.965     -182035.56      1.5115078      19683               2283 
    122000   1847.6178      207508.29     -194665.31      12567.882     -182097.42      1.5115078      19683               2283 
    122500   1836.6063      222125.51     -194672.3       12492.979     -182179.32      1.5115078      19683               2283 
    123000   1845.7844      199386.21     -194743.3       12555.41      -182187.89      1.5115078      19683               2283 
    123500   1896.6226      209243.2      -195006.86      12901.223     -182105.64      1.5115078      19683               2283 
    124000   1911.8233      211927.42     -194871.39      13004.621     -181866.77      1.5115078      19683               2283 
    124500   1911.0661      215673.49     -194584.71      12999.47      -181585.24      1.5115078      19683               2283 
    125000   1912.8057      217719.67     -194393.44      13011.303     -181382.14      1.5115078      19683               2283 
    125500   1977.7667      218792.98     -194736.24      13453.181     -181283.06      1.5115078      19683               2283 
    126000   1946.9623      218800.85     -194522.78      13243.644     -181279.14      1.5115078      19683               2283 
    126500   1937.1278      220215.43     -194571.82      13176.747     -181395.07      1.5115078      19683               2283 
    127000   1978.3017      222112.11     -195081.52      13456.821     -181624.7       1.5115078      19683               2283 
    127500   1893.1412      218986.39     -194741.72      12877.541     -181864.18      1.5115078      19683               2283 
    128000   1940.9368      215752.14     -195103.02      13202.657     -181900.36      1.5115078      19683               2283 
    128500   1981.1479      210553.22     -195292.63      13476.181     -181816.45      1.5115078      19683               2283 
    129000   1965.2875      201758.12     -195029.03      13368.295     -181660.73      1.5115078      19683               2283 
    129500   1962.8975      226367.11     -194788.81      13352.038     -181436.77      1.5115078      19683               2283 
    130000   1997.5115      221996.52     -194913.84      13587.49      -181326.35      1.5115078      19683               2283 
    130071   1949.6514      230581.59     -194570.01      13261.935     -181308.07      1.5115078      19683               2283 
Loop time of 5998.95 on 48 procs for 100000 steps with 2283 atoms

Performance: 0.144 ns/day, 166.637 hours/ns, 16.670 timesteps/s, 38.057 katom-step/s
99.5% CPU use with 12 MPI tasks x 4 OpenMP threads

MPI task timing breakdown:
Section |  min time  |  avg time  |  max time  |%varavg| %total
---------------------------------------------------------------
Pair    | 4236.1     | 4424.2     | 4945.2     | 316.6 | 73.75
Neigh   | 19.157     | 20.283     | 23.294     |  32.6 |  0.34
Comm    | 268.12     | 787.68     | 975.11     | 748.8 | 13.13
Output  | 0.037406   | 0.041999   | 0.04842    |   1.4 |  0.00
Modify  | 760.71     | 764.6      | 766.15     |   6.7 | 12.75
Other   |            | 2.107      |            |       |  0.04

Nlocal:         190.25 ave         204 max         178 min
Histogram: 1 2 1 2 0 1 3 0 1 1
Nghost:        5188.08 ave        5247 max        5117 min
Histogram: 2 0 0 1 2 2 2 0 0 3
Neighs:         143676 ave      154329 max      134675 min
Histogram: 1 2 2 1 0 3 1 0 0 2

Total # of neighbors = 1724106
Ave neighs/atom = 755.19317
Neighbor list builds = 604
Dangerous builds = 0
=== Phase 4: NVT Condensation at 2000 K ===
--- Condensation Stage 1/4 ---
Setting up Verlet run ...
  Unit style    : real
  Current step  : 130071
  Time step     : 0.1
Per MPI rank memory allocation (min/avg/max) = 368.7 | 374.5 | 381 Mbytes
   Step          Temp          Press          PotEng         KinEng         TotEng        Density         Volume        Atoms   
    130071   1949.6514      230581.35     -194570.01      13261.935     -181308.07      1.5115078      19683               2283 
    130500   1974.4417      214846.32     -194685.64      13430.564     -181255.07      1.5115078      19683               2283 
    131000   1949.0109      229268.8      -194400.36      13257.579     -181142.79      1.5115078      19683               2283 
    131500   1993.8053      218066.54     -194494.39      13562.28      -180932.11      1.5115078      19683               2283 
    132000   2081.8568      220520.97     -194818.94      14161.224     -180657.71      1.5115078      19683               2283 
    132500   2063.3637      227764.57     -194494.64      14035.43      -180459.21      1.5115078      19683               2283 
    133000   2022.545       223907.44     -194181.98      13757.773     -180424.21      1.5115078      19683               2283 
    133500   2052.6667      221506.68     -194526.68      13962.667     -180564.02      1.5115078      19683               2283 
    134000   2059.2538      230477.33     -195052.3       14007.474     -181044.83      1.5115078      19683               2283 
    134500   2040.647       220519.68     -195273.22      13880.907     -181392.31      1.5115078      19683               2283 
    135000   2008.7296      221990.84     -195130.89      13663.798     -181467.1       1.5115078      19683               2283 
    135500   1987.318       216995.02     -194957.22      13518.151     -181439.07      1.5115078      19683               2283 
    136000   2018.9246      222193.19     -195140.41      13733.146     -181407.26      1.5115078      19683               2283 
    136500   1998.9017      222305.61     -194892.81      13596.946     -181295.87      1.5115078      19683               2283 
    137000   1970.1366      226070.73     -194490.74      13401.28      -181089.46      1.5115078      19683               2283 
    137500   2008.95        227338.57     -194541.51      13665.297     -180876.22      1.5115078      19683               2283 
    138000   2067.0529      230796.67     -194806         14060.525     -180745.47      1.5115078      19683               2283 
    138500   2045.488       230770.05     -194628.31      13913.836     -180714.48      1.5115078      19683               2283 
    139000   2026.3695      224073.63     -194622.02      13783.788     -180838.24      1.5115078      19683               2283 
    139500   2016.8263      216401.02     -194877.07      13718.873     -181158.2       1.5115078      19683               2283 
    140000   2022.0666      221990.05     -195172.46      13754.519     -181417.94      1.5115078      19683               2283 
    140500   2012.1568      222993.1      -195196.77      13687.11      -181509.66      1.5115078      19683               2283 
    141000   2007.9496      224737.6      -195180.81      13658.492     -181522.31      1.5115078      19683               2283 
    141500   1995.1757      221646.2      -195013.64      13571.601     -181442.04      1.5115078      19683               2283 
    142000   2021.1281      220210.64     -195050.88      13748.135     -181302.74      1.5115078      19683               2283 
    142500   1992.5462      227137.92     -194711.94      13553.715     -181158.23      1.5115078      19683               2283 
    143000   2013.1987      214087.79     -194715.58      13694.198     -181021.38      1.5115078      19683               2283 
    143500   2023.8541      220571.52     -194651.96      13766.678     -180885.28      1.5115078      19683               2283 
    144000   2019.367       223398.98     -194568.87      13736.156     -180832.71      1.5115078      19683               2283 
    144500   1972.7924      231710.69     -194290.71      13419.345     -180871.37      1.5115078      19683               2283 
    145000   2060.5366      228890.92     -195148.45      14016.199     -181132.25      1.5115078      19683               2283 
    145500   1964.5733      217128.64     -194813.16      13363.437     -181449.72      1.5115078      19683               2283 
    146000   1986.0704      224387.43     -195118.67      13509.665     -181609         1.5115078      19683               2283 
    146500   1960.1811      229072.9      -194995.41      13333.56      -181661.85      1.5115078      19683               2283 
    147000   1982.0327      229034.1      -195093.64      13482.2       -181611.44      1.5115078      19683               2283 
    147500   1981.1534      223833.2      -194991.55      13476.219     -181515.33      1.5115078      19683               2283 
    148000   2053.5462      220006.86     -195303.81      13968.649     -181335.16      1.5115078      19683               2283 
    148500   2067.7783      228822.53     -195192.09      14065.459     -181126.63      1.5115078      19683               2283 
    149000   2023.6118      233303.71     -194730.01      13765.03      -180964.98      1.5115078      19683               2283 
    149500   2041.9309      225405.64     -194732.22      13889.64      -180842.58      1.5115078      19683               2283 
    150000   2066.3549      231849.15     -194898.37      14055.777     -180842.59      1.5115078      19683               2283 
    150500   2055.1776      225710.21     -195121.93      13979.747     -181142.18      1.5115078      19683               2283 
    151000   2010.4267      229159.29     -195163.36      13675.341     -181488.01      1.5115078      19683               2283 
    151500   1907.0061      232153.17     -194612.52      12971.853     -181640.66      1.5115078      19683               2283 
    152000   2001.6836      220715.48     -195293.75      13615.869     -181677.88      1.5115078      19683               2283 
    152500   1956.6081      222046.11     -194986.56      13309.256     -181677.31      1.5115078      19683               2283 
    153000   2058.7648      225648.96     -195581.72      14004.147     -181577.58      1.5115078      19683               2283 
    153500   1990.5345      229543.93     -194991.01      13540.031     -181450.98      1.5115078      19683               2283 
    154000   2007.3649      229585.79     -194931.84      13654.515     -181277.32      1.5115078      19683               2283 
    154500   2033.0407      230784.67     -194937.24      13829.167     -181108.08      1.5115078      19683               2283 
    155000   2047.1912      236824.85     -194839         13925.422     -180913.58      1.5115078      19683               2283 
    155500   2075.7951      230522.32     -194971.55      14119.991     -180851.56      1.5115078      19683               2283 
    156000   2038.4199      226050.46     -194870.78      13865.757     -181005.02      1.5115078      19683               2283 
    156500   1995.9533      232677.87     -194981.41      13576.891     -181404.52      1.5115078      19683               2283 
    157000   2028.0882      219100.67     -195431.64      13795.479     -181636.16      1.5115078      19683               2283 
    157500   1968.3835      227575.69     -195134.22      13389.355     -181744.87      1.5115078      19683               2283 
    158000   1980.207       221127.41     -195242.03      13469.781     -181772.25      1.5115078      19683               2283 
    158500   2003.5374      222633.63     -195328.89      13628.479     -181700.41      1.5115078      19683               2283 
    159000   1986.7884      222498.94     -195085.36      13514.549     -181570.81      1.5115078      19683               2283 
    159500   2045.4568      222032.67     -195304.29      13913.624     -181390.66      1.5115078      19683               2283 
    160000   2091.622       215595.77     -195455.39      14227.649     -181227.74      1.5115078      19683               2283 
    160500   2083.4228      223734.24     -195280.42      14171.876     -181108.54      1.5115078      19683               2283 
    161000   2044.5848      222882.16     -195019.23      13907.692     -181111.54      1.5115078      19683               2283 
    161500   2061.8578      221290.24     -195368.14      14025.187     -181342.95      1.5115078      19683               2283 
    162000   1978.7508      214396.79     -195168.22      13459.875     -181708.34      1.5115078      19683               2283 
    162500   1971.3266      218520.17     -195314.29      13409.375     -181904.92      1.5115078      19683               2283 
    163000   1970.0791      226504.75     -195375.24      13400.889     -181974.35      1.5115078      19683               2283 
    163500   1965.3106      215636.4      -195306.01      13368.452     -181937.56      1.5115078      19683               2283 
    164000   1971.9983      219701.56     -195235.41      13413.943     -181821.47      1.5115078      19683               2283 
    164500   1994.9681      234076.35     -195175.33      13570.189     -181605.14      1.5115078      19683               2283 
    165000   2013.1123      219536.19     -195024.8       13693.609     -181331.19      1.5115078      19683               2283 
    165500   2023.7651      221046.1      -194995.79      13766.072     -181229.72      1.5115078      19683               2283 
    166000   2039.3161      216762.02     -195093.22      13871.853     -181221.37      1.5115078      19683               2283 
    166500   2045.3017      218690        -195283.35      13912.569     -181370.78      1.5115078      19683               2283 
    167000   2009.9389      224903.6      -195221.87      13672.024     -181549.85      1.5115078      19683               2283 
    167500   1989.1021      224353.71     -195152.67      13530.288     -181622.39      1.5115078      19683               2283 
    168000   1995.5618      221672.04     -195207.29      13574.228     -181633.06      1.5115078      19683               2283 
    168500   1991.3603      230431.04     -195192.88      13545.648     -181647.23      1.5115078      19683               2283 
    169000   2007.1637      224358.92     -195340.95      13653.146     -181687.81      1.5115078      19683               2283 
    169500   1986.051       220953.27     -195247.39      13509.533     -181737.86      1.5115078      19683               2283 
    170000   2002.2172      225757.77     -195421.89      13619.499     -181802.39      1.5115078      19683               2283 
    170500   2032.9238      213646.5      -195779.37      13828.372     -181951         1.5115078      19683               2283 
    171000   1982.1651      225485.7      -195686.29      13483.1       -182203.19      1.5115078      19683               2283 
    171500   1950.7237      219324.83     -195690.35      13269.23      -182421.12      1.5115078      19683               2283 
    172000   1950.8386      223809.08     -195756.25      13270.011     -182486.24      1.5115078      19683               2283 
    172500   1986.1341      223870.95     -195889.43      13510.098     -182379.34      1.5115078      19683               2283 
    173000   1977.4483      222333.23     -195603.21      13451.016     -182152.19      1.5115078      19683               2283 
    173500   2013.5987      220362.08     -195575.28      13696.918     -181878.37      1.5115078      19683               2283 
    174000   2062.9185      213614.8      -195762.41      14032.402     -181730.01      1.5115078      19683               2283 
    174500   1994.8443      224556.96     -195318.39      13569.347     -181749.04      1.5115078      19683               2283 
    175000   2032.7424      220731.82     -195629.83      13827.138     -181802.69      1.5115078      19683               2283 
    175500   1957.3518      228028.61     -195194.27      13314.315     -181879.96      1.5115078      19683               2283 
    176000   1995.7646      227070.73     -195533.16      13575.607     -181957.55      1.5115078      19683               2283 
    176500   2009.3411      217808.54     -195715.75      13667.957     -182047.79      1.5115078      19683               2283 
    177000   1999.0202      228470.16     -195717.14      13597.752     -182119.38      1.5115078      19683               2283 
    177500   1978.4367      215524.19     -195709.06      13457.739     -182251.32      1.5115078      19683               2283 
    178000   1951.0176      212945.05     -195725.12      13271.228     -182453.89      1.5115078      19683               2283 
    178500   1944.1477      214218.35     -195908.29      13224.498     -182683.79      1.5115078      19683               2283 
    179000   1930.0953      215192.04     -195994.51      13128.911     -182865.6       1.5115078      19683               2283 
    179500   1949.696       217091.85     -196149.91      13262.239     -182887.67      1.5115078      19683               2283 
    180000   1948.4339      222321.29     -195894.18      13253.654     -182640.52      1.5115078      19683               2283 
    180500   2016.3441      210609.06     -195917.32      13715.593     -182201.73      1.5115078      19683               2283 
    181000   2012.9702      225405.98     -195709.78      13692.643     -182017.14      1.5115078      19683               2283 
    181500   1970.6349      220701.61     -195359.43      13404.67      -181954.76      1.5115078      19683               2283 
    182000   1989.1078      218416.69     -195503.31      13530.326     -181972.98      1.5115078      19683               2283 
    182500   2005.2808      220848.82     -195643.55      13640.338     -182003.21      1.5115078      19683               2283 
    183000   2028.4775      217124.08     -195868.25      13798.127     -182070.12      1.5115078      19683               2283 
    183500   1990.9678      220113.35     -195720.82      13542.978     -182177.84      1.5115078      19683               2283 
    184000   1962.9082      220360.99     -195666.29      13352.111     -182314.18      1.5115078      19683               2283 
    184500   1985.2255      224690.19     -195946.19      13503.918     -182442.27      1.5115078      19683               2283 
    185000   1995.3239      213190.51     -196129.37      13572.609     -182556.76      1.5115078      19683               2283 
    185500   1972.6618      220298.76     -196086.04      13418.457     -182667.59      1.5115078      19683               2283 
    186000   1962.7131      223571.46     -196126.57      13350.784     -182775.78      1.5115078      19683               2283 
    186500   1970.6447      215068.44     -196255.1       13404.736     -182850.36      1.5115078      19683               2283 
    187000   1943.6412      216806.61     -195959.82      13221.053     -182738.77      1.5115078      19683               2283 
    187500   1985.6997      224511.5      -195927.64      13507.143     -182420.5       1.5115078      19683               2283 
    188000   1938.1545      225512.63     -195338.92      13183.731     -182155.19      1.5115078      19683               2283 
    188500   2016.8349      218117.11     -195686.52      13718.931     -181967.59      1.5115078      19683               2283 
    189000   2054.2678      229220.73     -195867.8       13973.558     -181894.24      1.5115078      19683               2283 
    189500   2035.2139      228215.81     -195766.63      13843.949     -181922.68      1.5115078      19683               2283 
    190000   2052.7299      212717.7      -196032.96      13963.097     -182069.86      1.5115078      19683               2283 
    190500   2020.9559      231657.08     -196045.79      13746.963     -182298.82      1.5115078      19683               2283 
    191000   1938.709       228094.86     -195640.73      13187.503     -182453.23      1.5115078      19683               2283 
    191500   1994.1364      225779.84     -196030.51      13564.531     -182465.98      1.5115078      19683               2283 
    192000   1967.7841      235600.94     -195812.95      13385.278     -182427.67      1.5115078      19683               2283 
    192500   1941.166       227553.36     -195597.19      13204.216     -182392.97      1.5115078      19683               2283 
    193000   1996.0735      218194.57     -195928.43      13577.708     -182350.72      1.5115078      19683               2283 
    193500   2030.1276      224426.98     -196114.98      13809.351     -182305.63      1.5115078      19683               2283 
    194000   2069.1509      211458.71     -196409.15      14074.796     -182334.36      1.5115078      19683               2283 
    194500   1990.986       224066.34     -195964.52      13543.102     -182421.42      1.5115078      19683               2283 
    195000   1995.719       227978.27     -196218.28      13575.297     -182642.98      1.5115078      19683               2283 
    195500   1946.3648      227245.9      -196118.93      13239.58      -182879.35      1.5115078      19683               2283 
    196000   1976.3899      220447.59     -196357.15      13443.816     -182913.34      1.5115078      19683               2283 
    196500   1949.3942      221956.5      -196055.11      13260.186     -182794.93      1.5115078      19683               2283 
    197000   1974.7269      224168.47     -195958.53      13432.504     -182526.02      1.5115078      19683               2283 
    197500   1991.552       219843.71     -195788.02      13546.952     -182241.06      1.5115078      19683               2283 
    198000   2039.1369      223615.11     -195964.36      13870.634     -182093.72      1.5115078      19683               2283 
    198500   2022.5113      215365.04     -195829.28      13757.544     -182071.74      1.5115078      19683               2283 
    199000   1990.3888      223139.29     -195630.5       13539.04      -182091.46      1.5115078      19683               2283 
    199500   2049.8011      218148.77     -196071.47      13943.174     -182128.3       1.5115078      19683               2283 
    200000   2027.9914      209940.81     -196045.85      13794.821     -182251.03      1.5115078      19683               2283 
    200500   1998.611       219161.04     -196065.7       13594.969     -182470.73      1.5115078      19683               2283 
    201000   1983.4557      226331.13     -196185.23      13491.879     -182693.35      1.5115078      19683               2283 
    201500   1998.0912      209841.21     -196408.98      13591.433     -182817.55      1.5115078      19683               2283 
    202000   1924.5448      213478.79     -195924.85      13091.155     -182833.7       1.5115078      19683               2283 
    202500   1964.5775      216239.01     -196100.74      13363.466     -182737.27      1.5115078      19683               2283 
    203000   1963.4456      219519.18     -195975.54      13355.766     -182619.78      1.5115078      19683               2283 
    203500   1995.5822      222621.34     -196052.02      13574.366     -182477.65      1.5115078      19683               2283 
    204000   1963.2477      219504.04     -195664.89      13354.421     -182310.47      1.5115078      19683               2283 
    204500   1984.129       229521.54     -195621.74      13496.459     -182125.28      1.5115078      19683               2283 
    205000   2010.0955      223265.13     -195647.73      13673.089     -181974.65      1.5115078      19683               2283 
    205500   2009.3901      232222.52     -195531.86      13668.291     -181863.56      1.5115078      19683               2283 
    206000   2023.0147      224766.71     -195602.95      13760.968     -181841.99      1.5115078      19683               2283 
    206500   2024.3957      218322.27     -195717.73      13770.362     -181947.37      1.5115078      19683               2283 
    207000   1989.0398      230212.42     -195665.85      13529.863     -182135.99      1.5115078      19683               2283 
    207500   1970.7116      214036.13     -195681.21      13405.191     -182276.02      1.5115078      19683               2283 
    208000   1996.1338      225005.3      -195891.91      13578.118     -182313.79      1.5115078      19683               2283 
    208500   1941.031       235047.03     -195524.92      13203.298     -182321.63      1.5115078      19683               2283 
    209000   1965.9315      223989.29     -195660.77      13372.676     -182288.09      1.5115078      19683               2283 
    209500   2024.2655      231158.38     -196009.03      13769.476     -182239.55      1.5115078      19683               2283 
    210000   2002.9225      222146.27     -195812.61      13624.297     -182188.32      1.5115078      19683               2283 
    210500   2001.215       223900.04     -195768.02      13612.682     -182155.34      1.5115078      19683               2283 
    211000   2005.4174      225417.86     -195779.84      13641.267     -182138.57      1.5115078      19683               2283 
    211500   1997.1324      226629.66     -195729.91      13584.911     -182145         1.5115078      19683               2283 
    212000   1991.9641      229830.21     -195795.95      13549.755     -182246.19      1.5115078      19683               2283 
    212500   1928.1247      225322.55     -195571.38      13115.506     -182455.87      1.5115078      19683               2283 
    213000   2038.6815      219338.95     -196515.76      13867.536     -182648.22      1.5115078      19683               2283 
    213500   1976.5688      222670.25     -196214.1       13445.033     -182769.07      1.5115078      19683               2283 
    214000   1947.4929      229664.23     -196037.55      13247.253     -182790.29      1.5115078      19683               2283 
    214500   1946.0163      231672.84     -195919.48      13237.209     -182682.27      1.5115078      19683               2283 
    215000   1969.0765      216531.73     -195753.13      13394.069     -182359.06      1.5115078      19683               2283 
    215500   2026.4344      227175.62     -195799.73      13784.229     -182015.5       1.5115078      19683               2283 
    216000   2040.8758      220177.92     -195797         13882.463     -181914.53      1.5115078      19683               2283 
    216500   2013.3836      219399.77     -195665.75      13695.455     -181970.3       1.5115078      19683               2283 
    217000   2032.2249      230012.89     -195937.62      13823.618     -182114         1.5115078      19683               2283 
    217500   2076.0335      222703.75     -196416.9       14121.613     -182295.29      1.5115078      19683               2283 
    218000   1995.6856      229141.42     -196040.9       13575.069     -182465.83      1.5115078      19683               2283 
    218500   1976.215       222131.72     -196023.86      13442.626     -182581.24      1.5115078      19683               2283 
    219000   2001.281       211558.8      -196249.91      13613.131     -182636.78      1.5115078      19683               2283 
    219500   2017.5045      224435.31     -196369.8       13723.486     -182646.31      1.5115078      19683               2283 
    220000   1983.4605      228457.98     -196063.06      13491.912     -182571.14      1.5115078      19683               2283 
    220500   2005.8231      216104.09     -196043.03      13644.027     -182399         1.5115078      19683               2283 
    221000   2049.5964      225665.18     -195973.04      13941.782     -182031.25      1.5115078      19683               2283 
    221500   2066.2704      226177.84     -195785.71      14055.202     -181730.51      1.5115078      19683               2283 
    222000   2019.8277      232299.05     -195368.8       13739.289     -181629.51      1.5115078      19683               2283 
    222500   2021.8458      229164.41     -195446.83      13753.017     -181693.81      1.5115078      19683               2283 
    223000   1997.3731      226365.81     -195449.85      13586.548     -181863.3       1.5115078      19683               2283 
    223500   2012.3546      224635.81     -195779.98      13688.455     -182091.52      1.5115078      19683               2283 
    224000   2045.8313      226051.28     -196140.9       13916.171     -182224.73      1.5115078      19683               2283 
    224500   1994.6996      229718.88     -195885.04      13568.362     -182316.68      1.5115078      19683               2283 
    225000   1975.0263      218357.14     -195829.24      13434.541     -182394.7       1.5115078      19683               2283 
    225500   1917.4012      217887.79     -195546.97      13042.563     -182504.4       1.5115078      19683               2283 
    226000   1970.1448      223230.72     -195966.86      13401.336     -182565.53      1.5115078      19683               2283 
    226500   2004.9439      223061.3      -196205.1       13638.047     -182567.05      1.5115078      19683               2283 
    227000   2001.3909      222887.64     -196086.6       13613.878     -182472.72      1.5115078      19683               2283 
    227500   1975.4181      229388.99     -195701.97      13437.206     -182264.77      1.5115078      19683               2283 
    228000   2050.7114      227031.45     -195897.25      13949.366     -181947.88      1.5115078      19683               2283 
    228500   2062.0234      228132.26     -195779.76      14026.313     -181753.44      1.5115078      19683               2283 
    229000   2070.8106      234693.92     -195835.16      14086.085     -181749.07      1.5115078      19683               2283 
    229500   1994.1285      227550.43     -195520.63      13564.478     -181956.15      1.5115078      19683               2283 
    230000   1984.8838      219700.92     -195683.19      13501.594     -182181.6       1.5115078      19683               2283 
    230500   1973.1821      226023.83     -195765.25      13421.996     -182343.25      1.5115078      19683               2283 
    231000   2038.4522      223567.44     -196236.92      13865.977     -182370.95      1.5115078      19683               2283 
    231500   1973.8802      215948.16     -195827.26      13426.745     -182400.52      1.5115078      19683               2283 
    232000   1985.8808      222974.94     -195911.98      13508.375     -182403.61      1.5115078      19683               2283 
    232500   2002.277       229176.34     -195998.64      13619.906     -182378.74      1.5115078      19683               2283 
    233000   2042.5221      227908.98     -196285.86      13893.661     -182392.19      1.5115078      19683               2283 
    233500   1986.2042      229608.97     -195989.31      13510.575     -182478.73      1.5115078      19683               2283 
    234000   1994.4558      228559.61     -196234.06      13566.704     -182667.36      1.5115078      19683               2283 
    234500   1949.2626      217452.89     -196212.99      13259.29      -182953.7       1.5115078      19683               2283 
    235000   1962.3597      216930.86     -196425.01      13348.38      -183076.63      1.5115078      19683               2283 
    235500   1965.6887      223470.13     -196410.24      13371.024     -183039.21      1.5115078      19683               2283 
    236000   2011.9128      220261.84     -196572.91      13685.451     -182887.46      1.5115078      19683               2283 
    236500   2004.7651      222462.41     -196313.35      13636.83      -182676.52      1.5115078      19683               2283 
    237000   2037.1294      220757.76     -196321.49      13856.979     -182464.51      1.5115078      19683               2283 
    237500   1962.8433      229970.24     -195722.72      13351.67      -182371.05      1.5115078      19683               2283 
    238000   1993.0603      223123.14     -195905.97      13557.212     -182348.76      1.5115078      19683               2283 
    238500   2018.5853      213877.77     -196089.48      13730.838     -182358.64      1.5115078      19683               2283 
    239000   1982.9014      230763.67     -195840.76      13488.109     -182352.65      1.5115078      19683               2283 
    239500   1984.8648      226874.65     -195914.48      13501.464     -182413.02      1.5115078      19683               2283 
    240000   2024.1439      208671.6      -196309.07      13768.649     -182540.42      1.5115078      19683               2283 
    240500   1956.1577      230222.19     -196039.1       13306.192     -182732.91      1.5115078      19683               2283 
    241000   1974.9911      216144.97     -196324.04      13434.301     -182889.74      1.5115078      19683               2283 
    241500   1943.6627      226511.75     -196232.67      13221.199     -183011.47      1.5115078      19683               2283 
    242000   1934.2794      209226.02     -196238.08      13157.372     -183080.7       1.5115078      19683               2283 
    242500   1928.6828      218699.66     -196171.23      13119.303     -183051.92      1.5115078      19683               2283 
    243000   1971.9938      216722.71     -196236.44      13413.913     -182822.53      1.5115078      19683               2283 
    243500   2004.8138      220848.22     -196061.77      13637.161     -182424.61      1.5115078      19683               2283 
    244000   2038.5454      220135.26     -196058.55      13866.611     -182191.94      1.5115078      19683               2283 
    244500   2043.8651      228824.41     -196045.64      13902.797     -182142.85      1.5115078      19683               2283 
    245000   2052.8744      227694.05     -196177.21      13964.08      -182213.13      1.5115078      19683               2283 
    245500   2038.3934      223118.93     -196241.88      13865.577     -182376.3       1.5115078      19683               2283 
    246000   1995.5304      216967.16     -196177.81      13574.014     -182603.8       1.5115078      19683               2283 
    246500   1977.8254      223738.51     -196288.46      13453.581     -182834.87      1.5115078      19683               2283 
    247000   1986.8345      227906.74     -196452.72      13514.863     -182937.86      1.5115078      19683               2283 
    247500   1929.0851      216417.17     -196047.08      13122.039     -182925.04      1.5115078      19683               2283 
    248000   1992.3531      214348.56     -196401.56      13552.401     -182849.16      1.5115078      19683               2283 
    248500   1987.9146      221325.86     -196231.48      13522.21      -182709.27      1.5115078      19683               2283 
    249000   2051.443       222612.03     -196510.28      13954.343     -182555.93      1.5115078      19683               2283 
    249500   2062.4445      218467.2      -196489.13      14029.178     -182459.95      1.5115078      19683               2283 
    250000   2021.5753      221495.08     -196211.04      13751.177     -182459.86      1.5115078      19683               2283 
    250500   2014.6571      228778.54     -196225.91      13704.118     -182521.79      1.5115078      19683               2283 
    251000   1988.3752      222536.04     -196365.44      13525.343     -182840.09      1.5115078      19683               2283 
    251500   1957.587       226794.61     -196568.4       13315.915     -183252.49      1.5115078      19683               2283 
    252000   1899.3727      219201.33     -196260.01      12919.93      -183340.08      1.5115078      19683               2283 
    252500   1982.6772      220209.69     -196732.36      13486.584     -183245.78      1.5115078      19683               2283 
    253000   1952.5029      213264.72     -196344.95      13281.332     -183063.62      1.5115078      19683               2283 
    253500   1955.4036      221503.71     -196120.92      13301.063     -182819.86      1.5115078      19683               2283 
    254000   2021.2658      227531.72     -196359.92      13749.072     -182610.84      1.5115078      19683               2283 
    254500   2021.7999      225289.49     -196272.27      13752.704     -182519.56      1.5115078      19683               2283 
    255000   2025.9117      221446.57     -196252.15      13780.674     -182471.48      1.5115078      19683               2283 
    255500   2014.0744      213549.17     -196164.48      13700.154     -182464.33      1.5115078      19683               2283 
    256000   2015.805       224428.32     -196215.58      13711.926     -182503.66      1.5115078      19683               2283 
    256500   2039.9632      210309.98     -196505.64      13876.255     -182629.39      1.5115078      19683               2283 
    257000   1970.172       225718.33     -196287.23      13401.521     -182885.71      1.5115078      19683               2283 
    257500   1976.526       211282.48     -196564.16      13444.742     -183119.42      1.5115078      19683               2283 
    258000   2002.8189      220996.57     -196839.86      13623.592     -183216.26      1.5115078      19683               2283 
    258500   1934.7697      230017.91     -196365.71      13160.707     -183205.01      1.5115078      19683               2283 
    259000   1982.6803      215050.35     -196526.82      13486.605     -183040.22      1.5115078      19683               2283 
    259500   2023.5426      216533.34     -196504.29      13764.559     -182739.73      1.5115078      19683               2283 
    260000   2000.4224      226609.82     -196110.69      13607.29      -182503.4       1.5115078      19683               2283 
    260500   1989.469       219689.6      -195913.92      13532.783     -182381.14      1.5115078      19683               2283 
    261000   2053.2589      216709.81     -196351.18      13966.695     -182384.48      1.5115078      19683               2283 
    261500   2020.1283      225427.32     -196212.65      13741.334     -182471.32      1.5115078      19683               2283 
    262000   1975.1661      216178.07     -196040.73      13435.492     -182605.24      1.5115078      19683               2283 
    262500   1996.9883      228087.15     -196312.91      13583.931     -182728.98      1.5115078      19683               2283 
    263000   1979.015       228713.56     -196321.05      13461.673     -182859.38      1.5115078      19683               2283 
    263500   1978.463       214196.39     -196411.99      13457.918     -182954.07      1.5115078      19683               2283 
    264000   1956.0903      215957.17     -196323.71      13305.734     -183017.97      1.5115078      19683               2283 
    264500   1968.3193      218322.82     -196405.96      13388.918     -183017.04      1.5115078      19683               2283 
    265000   1990.1904      213270.08     -196427.28      13537.69      -182889.59      1.5115078      19683               2283 
    265500   2017.4789      231844.4      -196355.13      13723.312     -182631.82      1.5115078      19683               2283 
    266000   2046.9383      222768.25     -196323.99      13923.701     -182400.29      1.5115078      19683               2283 
    266500   2026.281       226145.38     -196092.73      13783.186     -182309.55      1.5115078      19683               2283 
    267000   2038.3628      225375.19     -196164.75      13865.369     -182299.38      1.5115078      19683               2283 
    267500   2016.0989      223033.86     -196143.05      13713.925     -182429.12      1.5115078      19683               2283 
    268000   1983.1653      219681.73     -196166.15      13489.904     -182676.25      1.5115078      19683               2283 
    268500   1983.0529      216474.17     -196412.97      13489.139     -182923.83      1.5115078      19683               2283 
    269000   1994.7503      222928.4      -196600.76      13568.708     -183032.05      1.5115078      19683               2283 
    269500   1963.4102      215846.94     -196396.52      13355.526     -183040.99      1.5115078      19683               2283 
    270000   1963.8291      224359.79     -196348.42      13358.375     -182990.04      1.5115078      19683               2283 
    270500   1950.9455      230891.91     -196166.61      13270.738     -182895.87      1.5115078      19683               2283 
    271000   1991.8654      228422.82     -196295.15      13549.084     -182746.07      1.5115078      19683               2283 
    271500   1980.7134      228303.87     -196109.11      13473.225     -182635.88      1.5115078      19683               2283 
    272000   2018.6243      221105.11     -196299.79      13731.103     -182568.69      1.5115078      19683               2283 
    272500   1988.629       229709.02     -196078.88      13527.069     -182551.81      1.5115078      19683               2283 
    273000   2049.529       224392.77     -196489.78      13941.324     -182548.46      1.5115078      19683               2283 
    273500   2007.8652      216679.25     -196225.22      13657.918     -182567.3       1.5115078      19683               2283 
    274000   2007.1133      216999.93     -196278.82      13652.803     -182626.01      1.5115078      19683               2283 
    274500   1985.337       215555        -196232.87      13504.676     -182728.19      1.5115078      19683               2283 
    275000   1993.8567      217899.94     -196422.61      13562.629     -182859.98      1.5115078      19683               2283 
    275500   1977.6003      217646.36     -196528.57      13452.049     -183076.52      1.5115078      19683               2283 
    276000   1936.0885      203356.41     -196465.67      13169.678     -183295.99      1.5115078      19683               2283 
    276500   1998.7305      221889.46     -196988.08      13595.782     -183392.3       1.5115078      19683               2283 
    277000   1952.752       225419.26     -196695.45      13283.027     -183412.43      1.5115078      19683               2283 
    277500   1993.7051      223996.34     -196806.08      13561.598     -183244.49      1.5115078      19683               2283 
    278000   2018.5035      220726.95     -196560.62      13730.282     -182830.34      1.5115078      19683               2283 
    278500   2052.9008      215147.23     -196522.91      13964.259     -182558.65      1.5115078      19683               2283 
    279000   2035.4865      224757.11     -196319.14      13845.804     -182473.34      1.5115078      19683               2283 
    279500   2031.0444      229462.44     -196349.76      13815.588     -182534.18      1.5115078      19683               2283 
    280000   2010.5688      218210.31     -196380.36      13676.308     -182704.05      1.5115078      19683               2283 
    280500   2038.177       221616.48     -196784.99      13864.105     -182920.89      1.5115078      19683               2283 
    281000   1962.6163      220736.99     -196448.77      13350.125     -183098.64      1.5115078      19683               2283 
    281500   1972.316       224478.67     -196573.8       13416.105     -183157.7       1.5115078      19683               2283 
    282000   1983.8124      220031.02     -196595.3       13494.306     -183101         1.5115078      19683               2283 
    282500   1955.7018      224511.83     -196286.26      13303.092     -182983.17      1.5115078      19683               2283 
    283000   2024.5788      218397.85     -196481.45      13771.607     -182709.84      1.5115078      19683               2283 
    283500   2073.5904      221710.34     -196436.77      14104.994     -182331.77      1.5115078      19683               2283 
    284000   2070.4845      228224.5      -196234.27      14083.868     -182150.41      1.5115078      19683               2283 
    284500   2061.9485      223278.14     -196221.53      14025.804     -182195.73      1.5115078      19683               2283 
    285000   2037.3646      227666.82     -196212.07      13858.579     -182353.5       1.5115078      19683               2283 
    285500   2029.6306      226146.22     -196271.5       13805.97      -182465.53      1.5115078      19683               2283 
    286000   2026.7079      227644.09     -196375.35      13786.09      -182589.26      1.5115078      19683               2283 
    286500   2004.0612      221896.7      -196355.38      13632.042     -182723.34      1.5115078      19683               2283 
    287000   2018.5356      236674.96     -196602.07      13730.5       -182871.57      1.5115078      19683               2283 
    287500   2000.9383      223633.07     -196623.65      13610.799     -183012.85      1.5115078      19683               2283 
    288000   1993.824       217214.82     -196678.2       13562.407     -183115.8       1.5115078      19683               2283 
    288500   1992.6373      220129.52     -196766.35      13554.335     -183212.01      1.5115078      19683               2283 
    289000   1979.5959      226927.24     -196711.02      13465.624     -183245.39      1.5115078      19683               2283 
    289500   2006.3415      217400.75     -196883.26      13647.553     -183235.71      1.5115078      19683               2283 
    290000   2020.0338      228930.32     -196893.98      13740.691     -183153.29      1.5115078      19683               2283 
    290500   2006.5829      208078.39     -196627.19      13649.195     -182978         1.5115078      19683               2283 
    291000   1999.8894      225251.39     -196406.91      13603.665     -182803.24      1.5115078      19683               2283 
    291500   2006.5994      232318.42     -196233.55      13649.307     -182584.24      1.5115078      19683               2283 
    292000   2043.1041      226051.81     -196340.84      13897.62      -182443.22      1.5115078      19683               2283 
    292500   2048.5441      237038.92     -196342.87      13934.624     -182408.24      1.5115078      19683               2283 
    293000   1996.8845      232642.53     -196052.86      13583.225     -182469.63      1.5115078      19683               2283 
    293500   2006.8634      227666.44     -196267.32      13651.103     -182616.21      1.5115078      19683               2283 
    294000   1971.5869      224020.51     -196270.53      13411.146     -182859.38      1.5115078      19683               2283 
    294500   1971.168       216928.94     -196506.33      13408.296     -183098.03      1.5115078      19683               2283 
    295000   1972.2998      224058.32     -196691.35      13415.995     -183275.36      1.5115078      19683               2283 
    295500   1968.289       221012.62     -196669.94      13388.712     -183281.22      1.5115078      19683               2283 
    296000   2005.7603      222011.82     -196853.92      13643.6       -183210.32      1.5115078      19683               2283 
    296500   2014.4194      215101.98     -196764.67      13702.501     -183062.17      1.5115078      19683               2283 
    297000   1993.8279      224469.59     -196541.03      13562.433     -182978.59      1.5115078      19683               2283 
    297500   2017.6522      220718.13     -196641.32      13724.491     -182916.82      1.5115078      19683               2283 
    298000   2034.206       227039.12     -196693.19      13837.094     -182856.1       1.5115078      19683               2283 
    298500   1980.6752      228731.97     -196326.84      13472.966     -182853.88      1.5115078      19683               2283 
    299000   2015.7062      220877.56     -196602.04      13711.254     -182890.79      1.5115078      19683               2283 
    299500   1985.6798      229443.53     -196475.79      13507.008     -182968.78      1.5115078      19683               2283 
    300000   1953.5287      224843.78     -196299.88      13288.309     -183011.57      1.5115078      19683               2283 
    300500   2023.2632      224716.46     -196861.57      13762.658     -183098.91      1.5115078      19683               2283 
    301000   1951.5018      220461.97     -196544.45      13274.522     -183269.93      1.5115078      19683               2283 
    301500   1971.5471      219780.82     -196861.24      13410.875     -183450.37      1.5115078      19683               2283 
    302000   1956.0926      223849.45     -196820.31      13305.75      -183514.56      1.5115078      19683               2283 
    302500   1997.8532      222113.99     -196988.07      13589.814     -183398.26      1.5115078      19683               2283 
    303000   1966.6012      220385.1      -196515.57      13377.231     -183138.34      1.5115078      19683               2283 
    303500   2013.571       215347.47     -196551.61      13696.73      -182854.88      1.5115078      19683               2283 
    304000   2040.6869      231320.53     -196591.53      13881.178     -182710.35      1.5115078      19683               2283 
    304500   2003.6917      235195.54     -196314.33      13629.529     -182684.8       1.5115078      19683               2283 
    305000   2008.5111      223702.77     -196449.85      13662.311     -182787.54      1.5115078      19683               2283 
    305500   2030.0862      218730.89     -196731.61      13809.07      -182922.54      1.5115078      19683               2283 
    306000   1941.5993      225485.64     -196225.35      13207.163     -183018.18      1.5115078      19683               2283 
    306500   1990.5739      222274.15     -196565.89      13540.299     -183025.6       1.5115078      19683               2283 
    307000   2009.6414      220719.25     -196646.72      13670         -182976.72      1.5115078      19683               2283 
    307500   1978.3894      220569.87     -196383.64      13457.417     -182926.22      1.5115078      19683               2283 
    308000   1987.5415      221815.05     -196438.87      13519.672     -182919.2       1.5115078      19683               2283 
    308500   2036.242       231664.29     -196818.18      13850.943     -182967.23      1.5115078      19683               2283 
    309000   2024.0791      221770.08     -196850.88      13768.208     -183082.67      1.5115078      19683               2283 
    309500   1944.7077      232820.01     -196562.52      13228.308     -183334.21      1.5115078      19683               2283 
    310000   1977.7874      219123.71     -197093.74      13453.322     -183640.42      1.5115078      19683               2283 
    310500   1960.0084      221725.99     -197127.77      13332.386     -183795.38      1.5115078      19683               2283 
    311000   1986.934       218807.04     -197298.72      13515.539     -183783.18      1.5115078      19683               2283 
    311500   1990.8277      216625.88     -197190.13      13542.025     -183648.11      1.5115078      19683               2283 
    312000   1972.4713      217504.53     -196921.56      13417.161     -183504.4       1.5115078      19683               2283 
    312500   1979.2117      224010.84     -196889.61      13463.011     -183426.6       1.5115078      19683               2283 
    313000   2006.3602      229330.52     -196969.08      13647.681     -183321.4       1.5115078      19683               2283 
    313500   1990.6779      224243.11     -196767.07      13541.006     -183226.07      1.5115078      19683               2283 
    314000   1998.4408      224049.38     -196746.51      13593.811     -183152.7       1.5115078      19683               2283 
    314500   1971.4595      230611.88     -196508.2       13410.278     -183097.92      1.5115078      19683               2283 
    315000   2010.7389      218919.82     -196783.02      13677.465     -183105.56      1.5115078      19683               2283 
    315500   2041.8709      220157.82     -196989.89      13889.231     -183100.66      1.5115078      19683               2283 
    316000   2054.8032      215217.37     -197120.65      13977.2       -183143.45      1.5115078      19683               2283 
    316500   1974.6272      224532.79     -196703.39      13431.826     -183271.56      1.5115078      19683               2283 
    317000   1961.274       214837.87     -196730.51      13340.995     -183389.52      1.5115078      19683               2283 
    317500   1956.068       220577.57     -196759.93      13305.583     -183454.35      1.5115078      19683               2283 
    318000   1964.5066      224078.76     -196782.43      13362.983     -183419.45      1.5115078      19683               2283 
    318500   1988.5936      225049.87     -196765.1       13526.829     -183238.27      1.5115078      19683               2283 
    319000   2008.7553      220428.87     -196616.98      13663.972     -182953.01      1.5115078      19683               2283 
    319500   2032.0687      219392.05     -196559.08      13822.555     -182736.53      1.5115078      19683               2283 
    320000   2008.4375      226168.81     -196295.49      13661.811     -182633.68      1.5115078      19683               2283 
    320500   1999.3975      232159.78     -196272.61      13600.319     -182672.29      1.5115078      19683               2283 
    321000   2027.5284      219366.16     -196584.77      13791.671     -182793.1       1.5115078      19683               2283 
    321500   2021.9176      225756        -196749.25      13753.505     -182995.74      1.5115078      19683               2283 
    322000   1980.0294      217723.97     -196720.27      13468.573     -183251.7       1.5115078      19683               2283 
    322500   1983.4809      216481.32     -196870.39      13492.051     -183378.34      1.5115078      19683               2283 
    323000   1989.8566      227950.02     -196901.77      13535.42      -183366.35      1.5115078      19683               2283 
    323500   1982.2893      218430.97     -196817.54      13483.945     -183333.59      1.5115078      19683               2283 
    324000   2028.789       221275.83     -197027.56      13800.246     -183227.31      1.5115078      19683               2283 
    324500   1975.0417      216819.78     -196557.55      13434.645     -183122.9       1.5115078      19683               2283 
    325000   2005.8966      234467.94     -196648.7       13644.527     -183004.18      1.5115078      19683               2283 
    325500   2028.9133      217338.1      -196632.35      13801.092     -182831.26      1.5115078      19683               2283 
    326000   2016.2136      238397.76     -196385.89      13714.706     -182671.18      1.5115078      19683               2283 
    326500   2026.7199      222564.82     -196408.34      13786.172     -182622.17      1.5115078      19683               2283 
    327000   2023.6007      224382.3      -196427.18      13764.954     -182662.23      1.5115078      19683               2283 
    327500   2010.9343      231888.55     -196619.8       13678.795     -182941.01      1.5115078      19683               2283 
    328000   1960.7926      213842.43     -196649.81      13337.72      -183312.09      1.5115078      19683               2283 
    328500   2004.052       217288.59     -197084.32      13631.98      -183452.34      1.5115078      19683               2283 
    329000   1979.5672      224071        -196952.58      13465.429     -183487.15      1.5115078      19683               2283 
    329500   2028.7983      213992.69     -197237.89      13800.309     -183437.58      1.5115078      19683               2283 
    330000   1983.0643      214606.2      -196871.9       13489.217     -183382.68      1.5115078      19683               2283 
    330500   1966.384       213837.03     -196675.19      13375.754     -183299.43      1.5115078      19683               2283 
    331000   1975.3137      217472.06     -196462.79      13436.495     -183026.3       1.5115078      19683               2283 
    331500   2030.0653      223827.77     -196530.19      13808.928     -182721.26      1.5115078      19683               2283 
    332000   2074.6688      219129.07     -196645.3       14112.33      -182532.97      1.5115078      19683               2283 
    332500   2022.8875      233223.12     -196290.07      13760.102     -182529.96      1.5115078      19683               2283 
    333000   2053.0814      223194.69     -196594.27      13965.488     -182628.78      1.5115078      19683               2283 
    333500   2026.2303      234858.41     -196584.11      13782.841     -182801.27      1.5115078      19683               2283 
    334000   1995.3472      218469.74     -196531.44      13572.768     -182958.67      1.5115078      19683               2283 
    334500   2032.5707      223202.47     -196883.05      13825.969     -183057.08      1.5115078      19683               2283 
    335000   1998.9138      239480.97     -196738.14      13597.029     -183141.11      1.5115078      19683               2283 
    335500   2008.8362      223226.71     -196901.18      13664.523     -183236.66      1.5115078      19683               2283 
    336000   2019.4969      219640.65     -196992.36      13737.039     -183255.32      1.5115078      19683               2283 
    336500   1974.0479      236104.73     -196596.59      13427.886     -183168.71      1.5115078      19683               2283 
    337000   1999.8759      226949.75     -196597.01      13603.573     -182993.44      1.5115078      19683               2283 
    337500   2022.1344      224180.49     -196481.89      13754.98      -182726.91      1.5115078      19683               2283 
    338000   2080.5578      228753.98     -196566.07      14152.388     -182413.68      1.5115078      19683               2283 
    338500   2059.411       224748.12     -196323.17      14008.543     -182314.62      1.5115078      19683               2283 
    339000   2078.0974      224610.85     -196576.22      14135.652     -182440.56      1.5115078      19683               2283 
    339500   1989.489       227620.57     -196297.66      13532.919     -182764.74      1.5115078      19683               2283 
    340000   2003.76        230505.36     -196556.84      13629.993     -182926.85      1.5115078      19683               2283 
    340500   1980.1492      218941.74     -196478.35      13469.388     -183008.96      1.5115078      19683               2283 
    341000   2022.0036      224543.05     -196863.3       13754.09      -183109.21      1.5115078      19683               2283 
    341500   1956.3655      231810.44     -196571.86      13307.606     -183264.26      1.5115078      19683               2283 
    342000   1949.8373      227783.97     -196626.43      13263.2       -183363.23      1.5115078      19683               2283 
    342500   1977.0948      227225.99     -196893.92      13448.611     -183445.31      1.5115078      19683               2283 
    343000   1994.0256      216890.52     -197008.55      13563.778     -183444.77      1.5115078      19683               2283 
    343500   2008.6407      220266.49     -197033.61      13663.193     -183370.42      1.5115078      19683               2283 
    344000   2034.1667      226715.65     -197006.53      13836.826     -183169.7       1.5115078      19683               2283 
    344500   1972.2256      231250.41     -196284.59      13415.49      -182869.1       1.5115078      19683               2283 
    345000   2051.2833      221654.6      -196591.56      13953.257     -182638.31      1.5115078      19683               2283 
    345500   2028.6643      224271.85     -196393.39      13799.398     -182593.99      1.5115078      19683               2283 
    346000   2024.7825      224664.77     -196453.39      13772.992     -182680.4       1.5115078      19683               2283 
    346500   2034.7039      218323.2      -196728.78      13840.48      -182888.3       1.5115078      19683               2283 
    347000   2046.7682      217030.38     -197059.51      13922.544     -183136.96      1.5115078      19683               2283 
    347500   1997.8895      229062.37     -196861.35      13590.061     -183271.29      1.5115078      19683               2283 
    348000   2013.6853      228512.86     -197020.31      13697.508     -183322.81      1.5115078      19683               2283 
    348500   1993.6689      211724.11     -196918.01      13561.352     -183356.66      1.5115078      19683               2283 
    349000   1952.8865      227707.49     -196640.7       13283.941     -183356.76      1.5115078      19683               2283 
    349500   1974.8435      226542.47     -196797.01      13433.297     -183363.71      1.5115078      19683               2283 
    350000   1997.0871      222610.86     -196911.37      13584.603     -183326.77      1.5115078      19683               2283 
    350500   2043.4818      213666.43     -197088.68      13900.19      -183188.49      1.5115078      19683               2283 
    351000   2003.4461      231325.16     -196592.97      13627.858     -182965.11      1.5115078      19683               2283 
    351500   2039.4816      232541.44     -196632.76      13872.979     -182759.78      1.5115078      19683               2283 
    352000   2054.1657      226610.56     -196617.46      13972.864     -182644.59      1.5115078      19683               2283 
    352500   2033.1277      225914.98     -196518.57      13829.759     -182688.81      1.5115078      19683               2283 
    353000   2054.5205      220697.88     -196952.62      13975.277     -182977.35      1.5115078      19683               2283 
    353500   2037.1082      223652.94     -197216.92      13856.835     -183360.08      1.5115078      19683               2283 
    354000   1942.1628      226655.03     -196675.98      13210.996     -183464.98      1.5115078      19683               2283 
    354500   1980.4638      225187.34     -196911.83      13471.528     -183440.3       1.5115078      19683               2283 
    355000   1991.9057      221308.17     -196871.9       13549.358     -183322.55      1.5115078      19683               2283 
    355500   2034.5599      226298.67     -196992.37      13839.501     -183152.87      1.5115078      19683               2283 
    356000   2021.827       223533.53     -196739.93      13752.889     -182987.04      1.5115078      19683               2283 
    356500   2015.307       225743.73     -196629.85      13708.538     -182921.31      1.5115078      19683               2283 
    357000   1990.887       217304.42     -196506.8       13542.428     -182964.37      1.5115078      19683               2283 
    357500   2064.7715      231806.61     -197170.23      14045.007     -183125.22      1.5115078      19683               2283 
    358000   2003.8655      226163.28     -197130.32      13630.711     -183499.61      1.5115078      19683               2283 
    358500   1921.9098      231544.53     -196800.8       13073.231     -183727.57      1.5115078      19683               2283 
    359000   1950.4654      228457.99     -197001.05      13267.472     -183733.58      1.5115078      19683               2283 
    359500   1998.2774      216157.53     -197193.57      13592.7       -183600.87      1.5115078      19683               2283 
    360000   1999.3348      225508.86     -197031.89      13599.893     -183432         1.5115078      19683               2283 
    360500   2000.8119      223416.21     -196890.55      13609.939     -183280.61      1.5115078      19683               2283 
    361000   1985.0711      221338.38     -196661.62      13502.867     -183158.76      1.5115078      19683               2283 
    361500   2040.2043      220665.08     -196953.97      13877.895     -183076.07      1.5115078      19683               2283 
    362000   1990.6371      224070.3      -196604.77      13540.729     -183064.04      1.5115078      19683               2283 
    362500   1986.5381      220453.51     -196594.3       13512.846     -183081.46      1.5115078      19683               2283 
    363000   2016.3341      237109.15     -197039.99      13715.525     -183324.46      1.5115078      19683               2283 
    363500   1937.5242      221185.12     -196988.81      13179.444     -183809.37      1.5115078      19683               2283 
    364000   1971.8085      219344.49     -197375.23      13412.653     -183962.57      1.5115078      19683               2283 
    364500   1940.4229      227027.88     -197112.98      13199.161     -183913.82      1.5115078      19683               2283 
    365000   1950.6269      220449.65     -196995.58      13268.571     -183727.01      1.5115078      19683               2283 
    365500   2033.2633      224749.32     -197304.44      13830.681     -183473.76      1.5115078      19683               2283 
    366000   2039.7616      219127.02     -197161.04      13874.883     -183286.16      1.5115078      19683               2283 
    366500   2025.3013      215195.99     -196934.63      13776.522     -183158.1       1.5115078      19683               2283 
    367000   2005.0061      221108.01     -196745.8       13638.469     -183107.33      1.5115078      19683               2283 
    367500   1969.2941      230370.6      -196526.92      13395.549     -183131.37      1.5115078      19683               2283 
    368000   2047.7292      219826.17     -197140.76      13929.081     -183211.68      1.5115078      19683               2283 
    368500   1976.9482      231877.82     -196914.79      13447.614     -183467.17      1.5115078      19683               2283 
    369000   1950.257       213813.86     -197059.13      13266.055     -183793.08      1.5115078      19683               2283 
    369500   1988.8773      216740.18     -197435.82      13528.758     -183907.06      1.5115078      19683               2283 
    370000   1993.1385      222013.4      -197423.56      13557.743     -183865.81      1.5115078      19683               2283 
    370500   1944.603       231840.54     -196985.87      13227.595     -183758.28      1.5115078      19683               2283 
    371000   1962.7554      226218.21     -196984.88      13351.072     -183633.81      1.5115078      19683               2283 
    371500   1997.5206      232607.03     -197023.7       13587.552     -183436.15      1.5115078      19683               2283 
    372000   1967.9353      233252.62     -196664.91      13386.306     -183278.61      1.5115078      19683               2283 
    372500   1994.262       228222.61     -196753.83      13565.386     -183188.44      1.5115078      19683               2283 
    373000   2005.1555      221670.79     -196790.04      13639.486     -183150.55      1.5115078      19683               2283 
    373500   1969.8573      231008.81     -196569.84      13399.38      -183170.46      1.5115078      19683               2283 
    374000   2027.6527      221513.84     -196930.79      13792.517     -183138.28      1.5115078      19683               2283 
    374500   2007.7719      221248.22     -196800.5       13657.283     -183143.22      1.5115078      19683               2283 
    375000   2000.4689      231468.05     -196837.52      13607.606     -183229.91      1.5115078      19683               2283 
    375500   1989.2632      219000.91     -196861.92      13531.383     -183330.54      1.5115078      19683               2283 
    376000   1974.5236      225941.8      -196846.82      13431.121     -183415.7       1.5115078      19683               2283 
    376500   1985.7959      221534.59     -196993.39      13507.798     -183485.59      1.5115078      19683               2283 
    377000   1979.1396      229097.24     -196963.18      13462.52      -183500.66      1.5115078      19683               2283 
    377500   2031.6788      222964.84     -197190.02      13819.903     -183370.12      1.5115078      19683               2283 
    378000   1998.3829      231495.28     -196679.39      13593.417     -183085.98      1.5115078      19683               2283 
    378500   2068.5543      230581.93     -196900.47      14070.738     -182829.73      1.5115078      19683               2283 
    379000   2047.6518      234926.14     -196734.42      13928.555     -182805.87      1.5115078      19683               2283 
    379500   2018.7643      222796.5      -196679.39      13732.056     -182947.34      1.5115078      19683               2283 
    380000   1991.2599      226414.82     -196701.62      13544.965     -183156.65      1.5115078      19683               2283 
    380500   2038.7379      218849.58     -197208.61      13867.921     -183340.69      1.5115078      19683               2283 
    381000   2013.5558      219184.46     -197206.93      13696.627     -183510.3       1.5115078      19683               2283 
    381500   1974.9909      224823.82     -197039.05      13434.3       -183604.75      1.5115078      19683               2283 
    382000   1953.6922      225130.99     -196877.74      13289.422     -183588.32      1.5115078      19683               2283 
    382500   1990.6143      212702.66     -197054.92      13540.574     -183514.34      1.5115078      19683               2283 
    383000   2011.1761      218007.91     -197095.19      13680.439     -183414.75      1.5115078      19683               2283 
    383500   1971.3096      225334.43     -196771.29      13409.259     -183362.03      1.5115078      19683               2283 
    384000   2042.0619      226512        -197237.5       13890.531     -183346.97      1.5115078      19683               2283 
    384500   2033.9291      224502.87     -197243.62      13835.21      -183408.41      1.5115078      19683               2283 
    385000   2010.4667      222098.4      -197193.51      13675.614     -183517.89      1.5115078      19683               2283 
    385500   1996.0175      227444.92     -197295.66      13577.327     -183718.33      1.5115078      19683               2283 
    386000   1979.0337      218781.03     -197558.06      13461.8       -184096.26      1.5115078      19683               2283 
    386500   1922.9567      216886.35     -197500.61      13080.352     -184420.26      1.5115078      19683               2283 
    387000   1925.7197      214239.02     -197492.79      13099.147     -184393.64      1.5115078      19683               2283 
    387500   1933.8194      226060.92     -197390.44      13154.243     -184236.2       1.5115078      19683               2283 
    388000   1926.795       224081.23     -197100.76      13106.462     -183994.3       1.5115078      19683               2283 
    388500   1994.0188      231958.67     -197310.12      13563.731     -183746.39      1.5115078      19683               2283 
    389000   2013.1876      222650.47     -197272         13694.122     -183577.88      1.5115078      19683               2283 
    389500   2013.7676      235303.33     -197112.07      13698.067     -183414.01      1.5115078      19683               2283 
    390000   2029.5138      226244.53     -197111.04      13805.176     -183305.86      1.5115078      19683               2283 
    390500   2041.8945      223756.02     -197154.17      13889.392     -183264.78      1.5115078      19683               2283 
    391000   2021.5437      233020.66     -197014.79      13750.961     -183263.83      1.5115078      19683               2283 
    391500   1980.2028      223654.03     -196860.96      13469.753     -183391.21      1.5115078      19683               2283 
    392000   1969.1076      222534.24     -197089.38      13394.28      -183695.1       1.5115078      19683               2283 
    392500   1938.0828      228242.5      -197169.54      13183.243     -183986.3       1.5115078      19683               2283 
    393000   1983.7662      210764.12     -197564.35      13493.991     -184070.35      1.5115078      19683               2283 
    393500   2009.6788      207650.2      -197715.98      13670.254     -184045.72      1.5115078      19683               2283 
    394000   2023.7591      220080.12     -197753.36      13766.032     -183987.32      1.5115078      19683               2283 
    394500   1971.3494      224778.38     -197278.36      13409.53      -183868.83      1.5115078      19683               2283 
    395000   1980.8532      226008.85     -197164.16      13474.177     -183689.98      1.5115078      19683               2283 
    395500   2011.1273      224985.43     -197152.92      13680.107     -183472.81      1.5115078      19683               2283 
    396000   2039.7642      229009.66     -197098.23      13874.901     -183223.33      1.5115078      19683               2283 
    396500   2070.3568      218930.97     -197091.93      14082.998     -183008.93      1.5115078      19683               2283 
    397000   2057.2902      218618.92     -196743.61      13994.117     -182749.49      1.5115078      19683               2283 
    397500   2174.4652      224868.23     -197249.93      14791.166     -182458.76      1.5115078      19683               2283 
    398000   2083.8144      216645.6      -196593.84      14174.54      -182419.3       1.5115078      19683               2283 
    398500   2101.4774      218733.66     -196992.05      14294.688     -182697.36      1.5115078      19683               2283 
    399000   2044.7796      232879.06     -197014.55      13909.017     -183105.54      1.5115078      19683               2283 
    399500   2022.6432      225687.29     -197083.92      13758.441     -183325.48      1.5115078      19683               2283 
    400000   2018.8369      232918.26     -197262.54      13732.55      -183530         1.5115078      19683               2283 
    400500   1979.4235      218762.56     -197211.88      13464.451     -183747.43      1.5115078      19683               2283 
    401000   2007.0596      213956.18     -197536.7       13652.438     -183884.26      1.5115078      19683               2283 
    401500   2023.6337      229541.5      -197725.74      13765.178     -183960.56      1.5115078      19683               2283 
    402000   1997.1893      217849.36     -197607.03      13585.298     -184021.73      1.5115078      19683               2283 
    402500   2005.3861      220556.39     -197646.13      13641.054     -184005.08      1.5115078      19683               2283 
    403000   1987.9442      210592.88     -197474.72      13522.411     -183952.31      1.5115078      19683               2283 
    403500   2000.4914      225508.84     -197449.11      13607.759     -183841.35      1.5115078      19683               2283 
    404000   1962.4615      224695.64     -196987.23      13349.072     -183638.16      1.5115078      19683               2283 
    404500   2027.1831      217727.6      -197186.44      13789.323     -183397.12      1.5115078      19683               2283 
    405000   2027.152       228574.15     -197019.67      13789.111     -183230.56      1.5115078      19683               2283 
    405500   2048.1732      218855.97     -197126.58      13932.101     -183194.48      1.5115078      19683               2283 
    406000   2088.0432      223742.01     -197625.22      14203.305     -183421.91      1.5115078      19683               2283 
    406500   2001.0436      226635.3      -197382.92      13611.516     -183771.41      1.5115078      19683               2283 
    407000   2028.721       211918.26     -197697.72      13799.783     -183897.94      1.5115078      19683               2283 
    407500   2003.7208      218734.65     -197574.79      13629.727     -183945.06      1.5115078      19683               2283 
    408000   2008.3761      226261.57     -197642.89      13661.393     -183981.5       1.5115078      19683               2283 
    408500   1992.5391      220203.31     -197580.48      13553.666     -184026.81      1.5115078      19683               2283 
    409000   1957.7868      220387.26     -197388.41      13317.274     -184071.13      1.5115078      19683               2283 
    409500   1965.4814      216050.35     -197416.78      13369.614     -184047.16      1.5115078      19683               2283 
    410000   1984.345       226127.16     -197396.79      13497.929     -183898.86      1.5115078      19683               2283 
    410500   2040.5919      231723.61     -197549.18      13880.532     -183668.65      1.5115078      19683               2283 
    411000   1997.5155      236256.77     -197025.07      13587.517     -183437.55      1.5115078      19683               2283 
    411500   2066.1213      214750.4      -197364.79      14054.188     -183310.6       1.5115078      19683               2283 
    412000   2030.4966      224610.14     -197200.02      13811.861     -183388.16      1.5115078      19683               2283 
    412500   1996.6504      232188.65     -197249.22      13581.632     -183667.59      1.5115078      19683               2283 
    413000   1969.239       223460.1      -197379.42      13395.174     -183984.25      1.5115078      19683               2283 
    413500   2018.5381      217346.46     -197783.26      13730.517     -184052.74      1.5115078      19683               2283 
    414000   1986.6996      222621.91     -197544.49      13513.945     -184030.54      1.5115078      19683               2283 
    414500   1978.1272      218777.53     -197426.52      13455.634     -183970.88      1.5115078      19683               2283 
    415000   1964.5917      226534.28     -197226.44      13363.563     -183862.87      1.5115078      19683               2283 
    415500   2038.0159      221463.33     -197581.23      13863.009     -183718.22      1.5115078      19683               2283 
    416000   2016.7         232622.2      -197268.22      13718.014     -183550.21      1.5115078      19683               2283 
    416500   2040.9505      220564.27     -197320.58      13882.971     -183437.61      1.5115078      19683               2283 
    417000   2078.8866      222938.38     -197487.69      14141.02      -183346.67      1.5115078      19683               2283 
    417500   2041.0517      232708.98     -197236.51      13883.659     -183352.85      1.5115078      19683               2283 
    418000   1997.3665      222936.5      -197183.94      13586.503     -183597.43      1.5115078      19683               2283 
    418500   2000.9066      222900.2      -197507.99      13610.584     -183897.41      1.5115078      19683               2283 
    419000   1975.5023      215760.69     -197513.09      13437.779     -184075.31      1.5115078      19683               2283 
    419500   1977.5261      221297.16     -197579.83      13451.545     -184128.29      1.5115078      19683               2283 
    420000   1971.7886      221542.26     -197526.28      13412.517     -184113.76      1.5115078      19683               2283 
    420500   2035.272       219503.79     -197848.23      13844.344     -184003.89      1.5115078      19683               2283 
    421000   2008.5         219968.27     -197438         13662.236     -183775.76      1.5115078      19683               2283 
    421500   1999.6203      231446.69     -197086.82      13601.834     -183484.99      1.5115078      19683               2283 
    422000   2024.047       232601.81     -197045.72      13767.99      -183277.74      1.5115078      19683               2283 
    422500   2007.9172      226354.41     -196907.43      13658.272     -183249.16      1.5115078      19683               2283 
    423000   2034.6206      231495.68     -197160.34      13839.914     -183320.43      1.5115078      19683               2283 
    423500   2035.3596      233216.84     -197271.99      13844.94      -183427.05      1.5115078      19683               2283 
    424000   1986.6793      228565.72     -197028.4       13513.807     -183514.6       1.5115078      19683               2283 
    424500   2042.4978      221671.51     -197509.96      13893.496     -183616.46      1.5115078      19683               2283 
    425000   1978.2255      228465.49     -197181.23      13456.302     -183724.93      1.5115078      19683               2283 
    425500   2002.7817      223139.1      -197455.79      13623.339     -183832.45      1.5115078      19683               2283 
    426000   2029.451       233143.16     -197755.64      13804.749     -183950.89      1.5115078      19683               2283 
    426500   1990.5282      215371.66     -197600.76      13539.988     -184060.77      1.5115078      19683               2283 
    427000   1961.8922      225753.5      -197485.53      13345.2       -184140.33      1.5115078      19683               2283 
    427500   2018.4668      225593.32     -197907.28      13730.032     -184177.25      1.5115078      19683               2283 
    428000   1973.0206      220704.98     -197578.05      13420.898     -184157.15      1.5115078      19683               2283 
    428500   1987.9803      221836.14     -197564.92      13522.657     -184042.27      1.5115078      19683               2283 
    429000   2012.4925      222619.05     -197501.99      13689.394     -183812.6       1.5115078      19683               2283 
    429500   1987.5382      237004.21     -197115.93      13519.65      -183596.28      1.5115078      19683               2283 
    430000   2021.9169      218317.87     -197178.65      13753.501     -183425.15      1.5115078      19683               2283 
    430500   2023.5563      223868.16     -197079.18      13764.652     -183314.53      1.5115078      19683               2283 
    431000   2031.9329      221508.22     -197126.24      13821.632     -183304.61      1.5115078      19683               2283 
    431500   2020.1101      224040.13     -197151.36      13741.21      -183410.15      1.5115078      19683               2283 
    432000   2026.8332      220144.47     -197397.88      13786.942     -183610.94      1.5115078      19683               2283 
    432500   2017.7437      220507.58     -197635.47      13725.113     -183910.35      1.5115078      19683               2283 
    433000   1954.1472      225800.88     -197423.41      13292.517     -184130.9       1.5115078      19683               2283 
    433500   1982.3931      219573.01     -197625.38      13484.651     -184140.73      1.5115078      19683               2283 
    434000   1976.933       225024.59     -197514.06      13447.511     -184066.55      1.5115078      19683               2283 
    434500   1994.4125      214032.33     -197505.79      13566.41      -183939.38      1.5115078      19683               2283 
    435000   1996.9444      216363.22     -197354.19      13583.633     -183770.56      1.5115078      19683               2283 
    435500   2020.2061      224450.87     -197369.46      13741.863     -183627.59      1.5115078      19683               2283 
    436000   1972.9122      217139.71     -196998.69      13420.161     -183578.53      1.5115078      19683               2283 
    436500   1986.8263      231808.65     -197090.83      13514.807     -183576.03      1.5115078      19683               2283 
    437000   2027.385       220376.22     -197398.11      13790.696     -183607.41      1.5115078      19683               2283 
    437500   1965.0727      239427.73     -197014.92      13366.834     -183648.09      1.5115078      19683               2283 
    438000   2056.9318      218291.55     -197673.3       13991.679     -183681.63      1.5115078      19683               2283 
    438500   1975.415       227513.54     -197123.31      13437.185     -183686.12      1.5115078      19683               2283 
    439000   2017.572       224916.95     -197433.07      13723.945     -183709.13      1.5115078      19683               2283 
    439500   2029.2017      218938.61     -197506.45      13803.053     -183703.4       1.5115078      19683               2283 
    440000   2017.9832      223122.21     -197431.95      13726.743     -183705.2       1.5115078      19683               2283 
    440500   1968.3412      222612.49     -197108.05      13389.067     -183718.99      1.5115078      19683               2283 
    441000   1952.9875      229439.82     -197034.95      13284.628     -183750.32      1.5115078      19683               2283 
    441500   2011.021       215041.29     -197416.47      13679.384     -183737.09      1.5115078      19683               2283 
    442000   1989.7679      225210.35     -197261.75      13534.816     -183726.93      1.5115078      19683               2283 
    442500   2016.3258      218333.83     -197463.67      13715.468     -183748.2       1.5115078      19683               2283 
    443000   1990.325       227447.81     -197266.22      13538.606     -183727.62      1.5115078      19683               2283 
    443500   2011.1906      213145.92     -197397.51      13680.538     -183716.97      1.5115078      19683               2283 
    444000   2003.6746      228978.57     -197340.66      13629.413     -183711.25      1.5115078      19683               2283 
    444500   2005.5252      217280.84     -197313.07      13642         -183671.07      1.5115078      19683               2283 
    445000   1997.9419      223631.57     -197260.05      13590.418     -183669.63      1.5115078      19683               2283 
    445500   2029.8873      219072.74     -197491.55      13807.717     -183683.84      1.5115078      19683               2283 
    446000   2017.1856      220946.06     -197510.16      13721.317     -183788.84      1.5115078      19683               2283 
    446500   1983.4251      225127.19     -197457.34      13491.671     -183965.67      1.5115078      19683               2283 
    447000   1997.5813      220231.04     -197745.17      13587.965     -184157.2       1.5115078      19683               2283 
    447500   2023.156       216183.46     -198041.1       13761.929     -184279.17      1.5115078      19683               2283 
    448000   1986.3186      216938.87     -197903.05      13511.354     -184391.69      1.5115078      19683               2283 
    448500   1986.2127      219218.72     -197988.04      13510.633     -184477.4       1.5115078      19683               2283 
    449000   1922.7178      206530.37     -197665.52      13078.727     -184586.79      1.5115078      19683               2283 
    449500   1921.9733      221308.51     -197694.88      13073.663     -184621.22      1.5115078      19683               2283 
    450000   1963.4208      223152.76     -197762.41      13355.597     -184406.81      1.5115078      19683               2283 
    450500   1953.1031      226566.55     -197326.5       13285.414     -184041.08      1.5115078      19683               2283 
    451000   2036.7533      226963.43     -197645.36      13854.421     -183790.94      1.5115078      19683               2283 
    451500   1991.2906      217097.13     -197228.98      13545.174     -183683.81      1.5115078      19683               2283 
    452000   2021.242       230178.58     -197371.47      13748.909     -183622.56      1.5115078      19683               2283 
    452500   1992.9559      228486.4      -197203.27      13556.502     -183646.77      1.5115078      19683               2283 
    453000   2004.996       221445.95     -197407.59      13638.401     -183769.19      1.5115078      19683               2283 
    453500   2005.698       217353.47     -197591.25      13643.176     -183948.07      1.5115078      19683               2283 
    454000   1942.154       221296.83     -197289.4       13210.937     -184078.46      1.5115078      19683               2283 
    454500   1952.2197      217152.27     -197414.22      13279.406     -184134.81      1.5115078      19683               2283 
    455000   1962.8242      220718.11     -197434.65      13351.539     -184083.11      1.5115078      19683               2283 
    455500   1978.9756      225586.53     -197283.34      13461.405     -183821.94      1.5115078      19683               2283 
    456000   2032.3467      227896.05     -197324.09      13824.446     -183499.64      1.5115078      19683               2283 
    456500   2060.7864      225331.19     -197339.19      14017.899     -183321.29      1.5115078      19683               2283 
    457000   2055.8249      229538.77     -197318.11      13984.149     -183333.96      1.5115078      19683               2283 
    457500   2009.8772      240774.47     -197149.34      13671.604     -183477.73      1.5115078      19683               2283 
    458000   2060.2823      223990.78     -197717.77      14014.47      -183703.3       1.5115078      19683               2283 
    458500   2025.3772      216136.19     -197689.19      13777.038     -183912.15      1.5115078      19683               2283 
    459000   1978.015       214080.12     -197447.16      13454.871     -183992.28      1.5115078      19683               2283 
    459500   2017.7994      224666.31     -197734.78      13725.492     -184009.29      1.5115078      19683               2283 
    460000   2014.4692      225131.74     -197685.5       13702.84      -183982.66      1.5115078      19683               2283 
    460500   2002.8854      221080.33     -197594.54      13624.044     -183970.49      1.5115078      19683               2283 
    461000   2020.9873      237274.6      -197710.18      13747.177     -183963         1.5115078      19683               2283 
    461500   2034.1583      226696.94     -197836.77      13836.769     -184000         1.5115078      19683               2283 
    462000   1993.5246      215229.37     -197676.55      13560.37      -184116.18      1.5115078      19683               2283 
    462500   1993.7541      223998.76     -197837.44      13561.931     -184275.51      1.5115078      19683               2283 
    463000   1889.9841      221628.03     -197276.81      12856.066     -184420.75      1.5115078      19683               2283 
    463500   1957.2567      218373.48     -197738.26      13313.668     -184424.6       1.5115078      19683               2283 
    464000   1924.5272      226763.45     -197357.7       13091.035     -184266.66      1.5115078      19683               2283 
    464500   1980.3547      223150.28     -197395.34      13470.786     -183924.55      1.5115078      19683               2283 
    465000   2036.3197      217574.83     -197519.45      13851.471     -183667.98      1.5115078      19683               2283 
    465500   2013.8494      227430.28     -197292.62      13698.624     -183594         1.5115078      19683               2283 
    466000   2005.7472      224307.56     -197210.65      13643.511     -183567.14      1.5115078      19683               2283 
    466500   2045.2976      222358.37     -197518.49      13912.541     -183605.95      1.5115078      19683               2283 
    467000   2024.299       231195.43     -197555.28      13769.704     -183785.58      1.5115078      19683               2283 
    467500   1997.5591      221635.04     -197608.67      13587.813     -184020.86      1.5115078      19683               2283 
    468000   1980.1874      218444.86     -197675.33      13469.648     -184205.69      1.5115078      19683               2283 
    468500   1976.4093      212594.66     -197718.69      13443.948     -184274.74      1.5115078      19683               2283 
    469000   2004.1985      222284.06     -197897.4       13632.976     -184264.42      1.5115078      19683               2283 
    469500   1960.8203      217581.96     -197553.08      13337.909     -184215.17      1.5115078      19683               2283 
    470000   2028.7147      224161.22     -197942.81      13799.74      -184143.07      1.5115078      19683               2283 
    470500   1989.3561      215013.41     -197577.4       13532.015     -184045.38      1.5115078      19683               2283 
    471000   1993.9954      220021.06     -197537.1       13563.572     -183973.53      1.5115078      19683               2283 
    471500   2026.7443      218493.12     -197673.15      13786.337     -183886.81      1.5115078      19683               2283 
    472000   1999.6489      225098.72     -197416.9       13602.029     -183814.87      1.5115078      19683               2283 
    472500   1990.9694      218107.48     -197344.9       13542.989     -183801.91      1.5115078      19683               2283 
    473000   1979.7333      217468.25     -197327.81      13466.559     -183861.25      1.5115078      19683               2283 
    473500   1996.9745      221641.16     -197536.1       13583.837     -183952.26      1.5115078      19683               2283 
    474000   1969.3104      224629.02     -197497.21      13395.66      -184101.55      1.5115078      19683               2283 
    474500   1977.6424      218998.98     -197706.78      13452.336     -184254.44      1.5115078      19683               2283 
    475000   1958.6108      214476.8      -197664.32      13322.879     -184341.45      1.5115078      19683               2283 
    475500   1948.8753      220468.14     -197588.3       13256.656     -184331.64      1.5115078      19683               2283 
    476000   1952.7539      226594.61     -197448.62      13283.039     -184165.58      1.5115078      19683               2283 
    476500   2038.48        222180.52     -197751.84      13866.166     -183885.67      1.5115078      19683               2283 
    477000   2046.6162      219791.83     -197565.44      13921.51      -183643.93      1.5115078      19683               2283 
    477500   2029.4885      223209.33     -197346.12      13805.004     -183541.12      1.5115078      19683               2283 
    478000   2072.8473      232458.23     -197649.97      14099.939     -183550.03      1.5115078      19683               2283 
    478500   2007.5847      225258.42     -197327.76      13656.01      -183671.75      1.5115078      19683               2283 
    479000   2002.8883      230374.8      -197445.23      13624.064     -183821.17      1.5115078      19683               2283 
    479500   1937.3896      239732.46     -197138.22      13178.528     -183959.7       1.5115078      19683               2283 
    480000   2039.3212      218727.04     -197852.62      13871.888     -183980.74      1.5115078      19683               2283 
    480500   1995.6235      223578.51     -197586.07      13574.647     -184011.42      1.5115078      19683               2283 
    481000   2004.0126      229356.35     -197674.05      13631.711     -184042.34      1.5115078      19683               2283 
    481500   1991.5226      235666.49     -197637.45      13546.752     -184090.7       1.5115078      19683               2283 
    482000   1987.1014      216419.44     -197669.83      13516.678     -184153.15      1.5115078      19683               2283 
    482500   1992.4636      225269.57     -197762.31      13553.153     -184209.16      1.5115078      19683               2283 
    483000   1953.1785      224486.01     -197573.86      13285.927     -184287.93      1.5115078      19683               2283 
    483500   1994.5108      221016.52     -197897.71      13567.078     -184330.63      1.5115078      19683               2283 
    484000   1990.227       221615.77     -197909.58      13537.939     -184371.64      1.5115078      19683               2283 
    484500   1937.4722      223300.77     -197546.5       13179.09      -184367.41      1.5115078      19683               2283 
    485000   1995.6529      221223.36     -197804.18      13574.847     -184229.33      1.5115078      19683               2283 
    485500   2056.9424      222953.13     -197978.75      13991.751     -183987         1.5115078      19683               2283 
    486000   2043.0509      225637.42     -197662.65      13897.259     -183765.39      1.5115078      19683               2283 
    486500   2030.6492      222282.81     -197453.99      13812.899     -183641.09      1.5115078      19683               2283 
    487000   2018.6841      227822.99     -197335.09      13731.51      -183603.58      1.5115078      19683               2283 
    487500   2030.6617      226753.79     -197499.33      13812.985     -183686.35      1.5115078      19683               2283 
    488000   2047.7718      214442.83     -197878.12      13929.371     -183948.75      1.5115078      19683               2283 
    488500   1962.2337      215426.3      -197657.15      13347.523     -184309.62      1.5115078      19683               2283 
    489000   1972.3917      224653.37     -197824.37      13416.62      -184407.75      1.5115078      19683               2283 
    489500   2025.9035      219447.46     -198132.7       13780.618     -184352.08      1.5115078      19683               2283 
    490000   1997.2059      220827.54     -197847.48      13585.411     -184262.07      1.5115078      19683               2283 
    490500   2019.8265      224838.56     -197878.67      13739.281     -184139.39      1.5115078      19683               2283 
    491000   1998.9995      231009.67     -197562.73      13597.611     -183965.11      1.5115078      19683               2283 
    491500   1984.6389      225690.26     -197302.6       13499.928     -183802.68      1.5115078      19683               2283 
    492000   2019.9694      226786.28     -197398.17      13740.253     -183657.92      1.5115078      19683               2283 
    492500   2043.5454      232800.58     -197515.52      13900.622     -183614.9       1.5115078      19683               2283 
    493000   2010.9405      220177.18     -197369.5       13678.836     -183690.66      1.5115078      19683               2283 
    493500   1974.7819      221040.33     -197481.59      13432.879     -184048.71      1.5115078      19683               2283 
    494000   1968.2255      220039.39     -197758.56      13388.28      -184370.28      1.5115078      19683               2283 
    494500   1925.097       228824.47     -197575.59      13094.911     -184480.68      1.5115078      19683               2283 
    495000   1977.885       225704.32     -197900.6       13453.986     -184446.62      1.5115078      19683               2283 
    495500   1995.7271      219526.33     -197840.76      13575.352     -184265.41      1.5115078      19683               2283 
    496000   2026.9718      229205.66     -197849.34      13787.885     -184061.46      1.5115078      19683               2283 
    496500   2028.3957      217903.56     -197646.89      13797.57      -183849.32      1.5115078      19683               2283 
    497000   2011.8031      221824.28     -197400.29      13684.704     -183715.58      1.5115078      19683               2283 
    497500   2023.8217      223268.23     -197413.21      13766.457     -183646.75      1.5115078      19683               2283 
    498000   2001.2358      223564.24     -197336.01      13612.824     -183723.19      1.5115078      19683               2283 
    498500   1994.8408      230697.59     -197572.98      13569.323     -184003.66      1.5115078      19683               2283 
    499000   1954.1323      219683.23     -197715.52      13292.415     -184423.11      1.5115078      19683               2283 
    499500   2002.2137      218679.17     -198151.23      13619.475     -184531.76      1.5115078      19683               2283 
    500000   1983.5433      225378.12     -197982.57      13492.475     -184490.09      1.5115078      19683               2283 
    500500   1956.1249      218559.36     -197660.06      13305.969     -184354.09      1.5115078      19683               2283 
    501000   1993.5871      218164.99     -197706.63      13560.795     -184145.83      1.5115078      19683               2283 
    501500   1989.3703      231797.32     -197438.21      13532.112     -183906.1       1.5115078      19683               2283 
    502000   2013.7393      222834.93     -197470.27      13697.874     -183772.4       1.5115078      19683               2283 
    502500   2016.0328      228390.24     -197415.59      13713.476     -183702.11      1.5115078      19683               2283 
    503000   2059.5075      211270.82     -197735.18      14009.2       -183725.98      1.5115078      19683               2283 
    503500   2004.2434      218752.41     -197440.4       13633.281     -183807.12      1.5115078      19683               2283 
    504000   1994.6491      218522.3      -197584.01      13568.019     -184015.99      1.5115078      19683               2283 
    504500   1977.4249      216178.42     -197825.51      13450.856     -184374.65      1.5115078      19683               2283 
    505000   1934.418       222184.79     -197697.4       13158.315     -184539.09      1.5115078      19683               2283 
    505500   1962.4048      229688.38     -197859.23      13348.687     -184510.54      1.5115078      19683               2283 
    506000   1996.7725      216848.87     -197943.43      13582.463     -184360.96      1.5115078      19683               2283 
    506500   1989.7837      222191.7      -197673.7       13534.923     -184138.77      1.5115078      19683               2283 
    507000   1989.1306      223133.89     -197484.1       13530.481     -183953.62      1.5115078      19683               2283 
    507500   2020.9077      216696.04     -197558.58      13746.636     -183811.94      1.5115078      19683               2283 
    508000   1992.487       228056.5      -197335.42      13553.312     -183782.11      1.5115078      19683               2283 
    508500   2037.3299      213894.61     -197636         13858.343     -183777.66      1.5115078      19683               2283 
    509000   2017.7336      214704.41     -197515.11      13725.045     -183790.07      1.5115078      19683               2283 
    509500   1969.5259      229247.36     -197233.62      13397.126     -183836.49      1.5115078      19683               2283 
    510000   1973.5388      226156.09     -197331.07      13424.422     -183906.65      1.5115078      19683               2283 
    510500   1977.7222      226564.15     -197467.56      13452.879     -184014.68      1.5115078      19683               2283 
    511000   1963.6073      226199.61     -197538.97      13356.866     -184182.11      1.5115078      19683               2283 
    511500   1925.4995      219339.91     -197469.66      13097.649     -184372.01      1.5115078      19683               2283 
    512000   1930.1254      215694.45     -197676.77      13129.115     -184547.65      1.5115078      19683               2283 
    512500   1922.7274      213817.72     -197719.19      13078.793     -184640.39      1.5115078      19683               2283 
    513000   1947.8923      213250.13     -197803.94      13249.97      -184553.97      1.5115078      19683               2283 
    513500   1951.7999      221625.42     -197512.39      13276.55      -184235.84      1.5115078      19683               2283 
    514000   2006.2245      207326.4      -197549.79      13646.758     -183903.04      1.5115078      19683               2283 
    514500   2065.9961      214996.31     -197787.57      14053.337     -183734.23      1.5115078      19683               2283 
    515000   2047.5694      218785.63     -197608.53      13927.994     -183680.53      1.5115078      19683               2283 
    515500   1990.6546      221802.12     -197230.21      13540.848     -183689.36      1.5115078      19683               2283 
    516000   2024.0731      219072.58     -197565.31      13768.168     -183797.14      1.5115078      19683               2283 
    516500   1996.5617      218212.23     -197520.48      13581.029     -183939.45      1.5115078      19683               2283 
    517000   1959.0543      222769.05     -197411.41      13325.896     -184085.52      1.5115078      19683               2283 
    517500   1976.6421      227615.01     -197663.14      13445.532     -184217.61      1.5115078      19683               2283 
    518000   1976.4922      214931.84     -197882.64      13444.512     -184438.13      1.5115078      19683               2283 
    518500   1948.2652      206210.13     -197933.59      13252.506     -184681.09      1.5115078      19683               2283 
    519000   1923.2633      201688.4      -197862.8       13082.438     -184780.36      1.5115078      19683               2283 
    519500   1949.8594      206109.58     -197951.36      13263.351     -184688.01      1.5115078      19683               2283 
    520000   2018.0365      219246.37     -197994.05      13727.105     -184266.94      1.5115078      19683               2283 
    520500   2033.282       225019.81     -197790.46      13830.808     -183959.65      1.5115078      19683               2283 
    521000   2018.6029      222598.58     -197576.44      13730.958     -183845.49      1.5115078      19683               2283 
    521500   2037.1037      226926.45     -197674.57      13856.804     -183817.77      1.5115078      19683               2283 
    522000   1991.0429      226701.44     -197372.83      13543.489     -183829.34      1.5115078      19683               2283 
    522500   1970.9117      221552.07     -197260.46      13406.552     -183853.91      1.5115078      19683               2283 
    523000   1985.0092      218983.94     -197412.54      13502.446     -183910.1       1.5115078      19683               2283 
    523500   2006.0746      223875.58     -197661.91      13645.738     -184016.17      1.5115078      19683               2283 
    524000   1999.754       223223.44     -197720.78      13602.744     -184118.04      1.5115078      19683               2283 
    524500   1966.4094      220278.65     -197545.19      13375.927     -184169.26      1.5115078      19683               2283 
    525000   1956.2176      216595.9      -197436.12      13306.6       -184129.52      1.5115078      19683               2283 
    525500   1994.5155      223804.33     -197521.81      13567.11      -183954.7       1.5115078      19683               2283 
    526000   2024.6064      213271.92     -197442.78      13771.795     -183670.99      1.5115078      19683               2283 
    526500   2057.3628      217184.96     -197494.07      13994.611     -183499.46      1.5115078      19683               2283 
    527000   2011.597       221969.84     -197143.48      13683.302     -183460.18      1.5115078      19683               2283 
    527500   2050.1464      214973.21     -197474.4       13945.524     -183528.87      1.5115078      19683               2283 
    528000   2008.8229      223416.08     -197482.69      13664.433     -183818.26      1.5115078      19683               2283 
    528500   1970.372       224843.42     -197492.9       13402.881     -184090.02      1.5115078      19683               2283 
    529000   2027.4407      218931.45     -197954.4       13791.075     -184163.33      1.5115078      19683               2283 
    529500   1987.9052      212982        -197698.79      13522.146     -184176.64      1.5115078      19683               2283 
    530000   1952.9082      223566.48     -197457.09      13284.089     -184173         1.5115078      19683               2283 
    530071   1927.3752      225925.66     -197285.17      13110.408     -184174.76      1.5115078      19683               2283 
Loop time of 24221.9 on 48 procs for 400000 steps with 2283 atoms

Performance: 0.143 ns/day, 168.208 hours/ns, 16.514 timesteps/s, 37.701 katom-step/s
99.5% CPU use with 12 MPI tasks x 4 OpenMP threads

MPI task timing breakdown:
Section |  min time  |  avg time  |  max time  |%varavg| %total
---------------------------------------------------------------
Pair    | 17310      | 17949      | 20703      | 758.6 | 74.10
Neigh   | 138.87     | 146.83     | 182.77     | 113.2 |  0.61
Comm    | 246.39     | 2994       | 3634.5     |1854.4 | 12.36
Output  | 0.14968    | 0.16732    | 0.19238    |   2.7 |  0.00
Modify  | 3082.3     | 3122.9     | 3133.1     |  27.0 | 12.89
Other   |            | 8.622      |            |       |  0.04

Nlocal:         190.25 ave         199 max         182 min
Histogram: 1 2 1 1 2 1 0 1 2 1
Nghost:        5182.25 ave        5225 max        5133 min
Histogram: 1 1 1 0 2 1 3 1 1 1
Neighs:         143679 ave      151149 max      137845 min
Histogram: 2 2 1 1 1 1 1 1 1 1

Total # of neighbors = 1724149
Ave neighs/atom = 755.212
Neighbor list builds = 4372
Dangerous builds = 0
System init for write_restart ...
--- Condensation Stage 2/4 ---
Setting up Verlet run ...
  Unit style    : real
  Current step  : 530071
  Time step     : 0.1
Per MPI rank memory allocation (min/avg/max) = 369 | 374.5 | 380.1 Mbytes
   Step          Temp          Press          PotEng         KinEng         TotEng        Density         Volume        Atoms   
    530071   1927.3752      225925.86     -197285.17      13110.408     -184174.76      1.5115078      19683               2283 
    530500   2000.5774      224314.25     -197714.37      13608.345     -184106.03      1.5115078      19683               2283 
    531000   1981.5054      214538.29     -197459.86      13478.613     -183981.25      1.5115078      19683               2283 
    531500   2028.4621      228303.59     -197568.39      13798.022     -183770.37      1.5115078      19683               2283 
    532000   2034.4479      236662.14     -197423.78      13838.739     -183585.04      1.5115078      19683               2283 
    532500   2020.2481      226063        -197199.53      13742.149     -183457.38      1.5115078      19683               2283 
    533000   2081.8077      225966.7      -197484.38      14160.89      -183323.49      1.5115078      19683               2283 
    533500   2074.2618      225573.49     -197375.77      14109.561     -183266.21      1.5115078      19683               2283 
    534000   2039.902       225165.79     -197272.38      13875.839     -183396.55      1.5115078      19683               2283 
    534500   2037.3224      234100.39     -197560.89      13858.292     -183702.6       1.5115078      19683               2283 
    535000   2004.2039      218015.61     -197616.69      13633.013     -183983.68      1.5115078      19683               2283 
    535500   1980.867       217313.59     -197610.49      13474.27      -184136.22      1.5115078      19683               2283 
    536000   1985.5593      227539.58     -197706.83      13506.188     -184200.64      1.5115078      19683               2283 
    536500   2004.8651      219885.54     -197812.62      13637.511     -184175.11      1.5115078      19683               2283 
    537000   2009.4715      233741.64     -197775.36      13668.844     -184106.52      1.5115078      19683               2283 
    537500   1997.3948      221420.07     -197558.81      13586.696     -183972.11      1.5115078      19683               2283 
    538000   1975.6408      239497.78     -197166.13      13438.721     -183727.4       1.5115078      19683               2283 
    538500   2019.4927      223375.8      -197196.99      13737.01      -183459.98      1.5115078      19683               2283 
    539000   2019.0913      224594.2      -197050.41      13734.28      -183316.13      1.5115078      19683               2283 
    539500   2112.8278      214048.09     -197723.47      14371.895     -183351.57      1.5115078      19683               2283 
    540000   2032.5564      237968.58     -197436.11      13825.873     -183610.24      1.5115078      19683               2283 
    540500   2060.2636      226697.04     -197965.53      14014.342     -183951.19      1.5115078      19683               2283 
    541000   1968.6925      222320.3      -197484.71      13391.457     -184093.25      1.5115078      19683               2283 
    541500   1982.5303      215293.16     -197636.81      13485.585     -184151.22      1.5115078      19683               2283 
    542000   2005.6735      224588.99     -197809.02      13643.009     -184166.01      1.5115078      19683               2283 
    542500   1980.6568      221305.88     -197662.29      13472.841     -184189.45      1.5115078      19683               2283 
    543000   1995.0785      213865.64     -197765.59      13570.94      -184194.65      1.5115078      19683               2283 
    543500   2024.8178      220347.39     -197987.06      13773.233     -184213.83      1.5115078      19683               2283 
    544000   1978.8889      219671.09     -197742.09      13460.815     -184281.27      1.5115078      19683               2283 
    544500   1987.1755      231424        -197898.44      13517.182     -184381.26      1.5115078      19683               2283 
    545000   1937.7123      218335.91     -197622.2       13180.723     -184441.48      1.5115078      19683               2283 
    545500   1971.3706      227676.47     -197842.86      13409.674     -184433.19      1.5115078      19683               2283 
    546000   1946.7691      219957.62     -197603.81      13242.329     -184361.48      1.5115078      19683               2283 
    546500   1995.4537      225177.23     -197665.77      13573.492     -184092.28      1.5115078      19683               2283 
    547000   2028.7268      219948.46     -197577.04      13799.822     -183777.22      1.5115078      19683               2283 
    547500   2028.8207      230684.28     -197408.5       13800.461     -183608.04      1.5115078      19683               2283 
    548000   2041.7222      218874.9      -197487         13888.22      -183598.78      1.5115078      19683               2283 
    548500   2030.5482      217067.77     -197525.38      13812.212     -183713.17      1.5115078      19683               2283 
    549000   2030.2016      231851.87     -197731.03      13809.855     -183921.18      1.5115078      19683               2283 
    549500   2018.2308      211767.25     -197845.74      13728.427     -184117.31      1.5115078      19683               2283 
    550000   1993.1071      208359.26     -197780.62      13557.53      -184223.09      1.5115078      19683               2283 
    550500   2005.0673      219745.97     -197896.45      13638.886     -184257.56      1.5115078      19683               2283 
    551000   1991.9877      223573.99     -197768.67      13549.915     -184218.75      1.5115078      19683               2283 
    551500   1980.6169      233177.05     -197600.11      13472.569     -184127.54      1.5115078      19683               2283 
    552000   2002.7002      226587.84     -197632.24      13622.785     -184009.45      1.5115078      19683               2283 
    552500   2027.9853      223503.73     -197702.17      13794.779     -183907.39      1.5115078      19683               2283 
    553000   1991.2573      237185.85     -197402.66      13544.947     -183857.71      1.5115078      19683               2283 
    553500   2019.4662      213639.97     -197548.64      13736.83      -183811.81      1.5115078      19683               2283 
    554000   2001.708       230597.02     -197451.9       13616.035     -183835.87      1.5115078      19683               2283 
    554500   1991.7485      220498.64     -197538.41      13548.288     -183990.12      1.5115078      19683               2283 
    555000   1989.3427      226326.16     -197744.48      13531.924     -184212.55      1.5115078      19683               2283 
    555500   1974.0134      214597.86     -197801.73      13427.651     -184374.08      1.5115078      19683               2283 
    556000   1965.5638      225092.58     -197806.02      13370.175     -184435.84      1.5115078      19683               2283 
    556500   1985.3704      225260.3      -197893.14      13504.904     -184388.24      1.5115078      19683               2283 
    557000   2004.834       213268.41     -197843.22      13637.299     -184205.93      1.5115078      19683               2283 
    557500   1996.2659      231142.18     -197538.92      13579.017     -183959.9       1.5115078      19683               2283 
    558000   2025.691       229191.11     -197545.21      13779.173     -183766.04      1.5115078      19683               2283 
    558500   2021.8137      224993.06     -197445.01      13752.798     -183692.21      1.5115078      19683               2283 
    559000   2065.3661      219517.73     -197753.01      14049.051     -183703.96      1.5115078      19683               2283 
    559500   2021.3132      216989.13     -197601.35      13749.394     -183851.95      1.5115078      19683               2283 
    560000   1987.323       219349.77     -197544.23      13518.185     -184026.05      1.5115078      19683               2283 
    560500   2014.8615      219429.27     -197964.82      13705.508     -184259.31      1.5115078      19683               2283 
    561000   1988.1832      216246.5      -198072.14      13524.037     -184548.1       1.5115078      19683               2283 
    561500   1991.3482      217906.35     -198300.35      13545.565     -184754.78      1.5115078      19683               2283 
    562000   1952.9295      216395.72     -198050.49      13284.234     -184766.26      1.5115078      19683               2283 
    562500   1959.9115      222011.22     -198018.55      13331.727     -184686.82      1.5115078      19683               2283 
    563000   1942.0328      226848.28     -197698.87      13210.112     -184488.76      1.5115078      19683               2283 
    563500   1978.5904      230517.95     -197651.86      13458.784     -184193.08      1.5115078      19683               2283 
    564000   2020.7214      235172.27     -197675.95      13745.368     -183930.58      1.5115078      19683               2283 
    564500   1988.4924      226120.26     -197300.17      13526.14      -183774.03      1.5115078      19683               2283 
    565000   2043.6864      229603.72     -197588.39      13901.581     -183686.81      1.5115078      19683               2283 
    565500   2048.4794      226831.21     -197674.43      13934.184     -183740.25      1.5115078      19683               2283 
    566000   2003.7698      225244.05     -197559.78      13630.06      -183929.72      1.5115078      19683               2283 
    566500   1988.1487      233662.25     -197667.3       13523.802     -184143.5       1.5115078      19683               2283 
    567000   1998.0953      224106.78     -197879.79      13591.461     -184288.33      1.5115078      19683               2283 
    567500   2010.6599      228314.91     -197993.11      13676.928     -184316.18      1.5115078      19683               2283 
    568000   1997.417       228947        -197894.41      13586.847     -184307.56      1.5115078      19683               2283 
    568500   1996.1287      230644.17     -197814.24      13578.083     -184236.15      1.5115078      19683               2283 
    569000   2004.1833      229025.68     -197707.99      13632.873     -184075.11      1.5115078      19683               2283 
    569500   2031.0161      224724.46     -197465.99      13815.395     -183650.59      1.5115078      19683               2283 
    570000   2073.9081      221991.09     -197428.39      14107.155     -183321.23      1.5115078      19683               2283 
    570500   2051.6736      230767.42     -197267.96      13955.912     -183312.05      1.5115078      19683               2283 
    571000   2001.8659      230797.2      -197078.57      13617.109     -183461.46      1.5115078      19683               2283 
    571500   1987.4569      232161.2      -197180.13      13519.096     -183661.03      1.5115078      19683               2283 
    572000   2014.919       216534.79     -197568.4       13705.899     -183862.5       1.5115078      19683               2283 
    572500   2047.9803      217742.41     -197933.03      13930.789     -184002.25      1.5115078      19683               2283 
    573000   2009.6436      228285.95     -197745.46      13670.015     -184075.44      1.5115078      19683               2283 
    573500   1988.2446      229433.78     -197608.01      13524.455     -184083.56      1.5115078      19683               2283 
    574000   1989.8534      223667.14     -197616.19      13535.398     -184080.79      1.5115078      19683               2283 
    574500   2013.9248      228454.67     -197740.95      13699.137     -184041.81      1.5115078      19683               2283 
    575000   2017.3612      213707.32     -197741.43      13722.511     -184018.92      1.5115078      19683               2283 
    575500   1986.6394      228666.49     -197637.57      13513.535     -184124.03      1.5115078      19683               2283 
    576000   1972.1369      221187.72     -197751.38      13414.887     -184336.49      1.5115078      19683               2283 
    576500   1962.9897      230598.69     -197868.72      13352.665     -184516.06      1.5115078      19683               2283 
    577000   1980.1835      218896.52     -198086.55      13469.621     -184616.93      1.5115078      19683               2283 
    577500   1974.1546      222121.61     -198035.69      13428.611     -184607.08      1.5115078      19683               2283 
    578000   1998.2844      235879.5      -198076.94      13592.748     -184484.19      1.5115078      19683               2283 
    578500   1955.1057      220051.31     -197573.65      13299.037     -184274.62      1.5115078      19683               2283 
    579000   2022.8073      223926.72     -197772.72      13759.557     -184013.17      1.5115078      19683               2283 
    579500   2046.7855      216894.92     -197733.21      13922.662     -183810.55      1.5115078      19683               2283 
    580000   2017.5898      219903.12     -197428.93      13724.066     -183704.87      1.5115078      19683               2283 
    580500   2053.4077      227253.76     -197664.93      13967.708     -183697.22      1.5115078      19683               2283 
    581000   2036.5576      219794.23     -197628.29      13853.09      -183775.2       1.5115078      19683               2283 
    581500   1980.436       227736.82     -197397.79      13471.339     -183926.45      1.5115078      19683               2283 
    582000   2019.3526      221961.66     -197990.42      13736.058     -184254.36      1.5115078      19683               2283 
    582500   1966.0256      226634.63     -197976.32      13373.316     -184603.01      1.5115078      19683               2283 
    583000   2020.5434      215645.43     -198386.99      13744.157     -184642.84      1.5115078      19683               2283 
    583500   1933.7952      227361.61     -197750.1       13154.078     -184596.02      1.5115078      19683               2283 
    584000   2039.353       218449.53     -198284.57      13872.105     -184412.46      1.5115078      19683               2283 
    584500   1997.9554      226720.53     -197781.62      13590.509     -184191.11      1.5115078      19683               2283 
    585000   1946.4889      233711.7      -197224.83      13240.423     -183984.41      1.5115078      19683               2283 
    585500   1995.6532      228075.68     -197343.04      13574.849     -183768.19      1.5115078      19683               2283 
    586000   2052.0962      220648.6      -197583.64      13958.786     -183624.85      1.5115078      19683               2283 
    586500   2057.8578      226652.88     -197588.33      13997.978     -183590.35      1.5115078      19683               2283 
    587000   2036.2638      218688.61     -197546.18      13851.091     -183695.09      1.5115078      19683               2283 
    587500   1981.171       222724.53     -197418.92      13476.338     -183942.59      1.5115078      19683               2283 
    588000   1987.1066      223323.52     -197777.07      13516.714     -184260.36      1.5115078      19683               2283 
    588500   1969.1283      224278.22     -197817.4       13394.421     -184422.98      1.5115078      19683               2283 
    589000   1976.9704      225247.26     -197905.75      13447.765     -184457.99      1.5115078      19683               2283 
    589500   1932.9925      233060.62     -197556.06      13148.618     -184407.44      1.5115078      19683               2283 
    590000   1964.3504      227866.29     -197693.12      13361.921     -184331.2       1.5115078      19683               2283 
    590500   1992.128       228652.45     -197758.33      13550.87      -184207.46      1.5115078      19683               2283 
    591000   2005.9359      227073.3      -197645.07      13644.794     -184000.28      1.5115078      19683               2283 
    591500   2028.8112      223119.27     -197581         13800.397     -183780.6       1.5115078      19683               2283 
    592000   2067.7753      215648.4      -197729.56      14065.439     -183664.13      1.5115078      19683               2283 
    592500   1968.9778      230339.39     -197082.12      13393.398     -183688.72      1.5115078      19683               2283 
    593000   1999.343       221661.37     -197489.11      13599.948     -183889.16      1.5115078      19683               2283 
    593500   2008.3749      226595.22     -197998.41      13661.385     -184337.03      1.5115078      19683               2283 
    594000   1954.0951      228260.06     -197889.94      13292.162     -184597.77      1.5115078      19683               2283 
    594500   1974.275       226012.15     -198014.68      13429.43      -184585.25      1.5115078      19683               2283 
    595000   1952.0716      220909.13     -197770.24      13278.398     -184491.85      1.5115078      19683               2283 
    595500   1992.8738      228150.49     -197814.78      13555.943     -184258.84      1.5115078      19683               2283 
    596000   2002.0109      222151.27     -197654.17      13618.096     -184036.07      1.5115078      19683               2283 
    596500   1996.6722      232524.82     -197465.99      13581.781     -183884.21      1.5115078      19683               2283 
    597000   2006.4255      235148.48     -197418.64      13648.125     -183770.51      1.5115078      19683               2283 
    597500   1985.3256      227886.78     -197203.41      13504.598     -183698.81      1.5115078      19683               2283 
    598000   2046.7607      225456.01     -197646.36      13922.493     -183723.87      1.5115078      19683               2283 
    598500   2042.1069      217419.32     -197837.59      13890.837     -183946.76      1.5115078      19683               2283 
    599000   1967.4668      216540.69     -197721.95      13383.12      -184338.83      1.5115078      19683               2283 
    599500   1922.6074      217755.94     -197585         13077.976     -184507.02      1.5115078      19683               2283 
    600000   1930.9548      225330.81     -197599.14      13134.757     -184464.38      1.5115078      19683               2283 
    600500   1965.7338      217568.27     -197744.21      13371.331     -184372.88      1.5115078      19683               2283 
    601000   1981.2414      225109.38     -197712.14      13476.817     -184235.32      1.5115078      19683               2283 
    601500   1979.8782      227727.03     -197524.87      13467.544     -184057.33      1.5115078      19683               2283 
    602000   2008.7874      226274.21     -197558.98      13664.191     -183894.79      1.5115078      19683               2283 
    602500   2011.5637      239722.03     -197495.21      13683.076     -183812.13      1.5115078      19683               2283 
    603000   1975.2528      223556.79     -197230.37      13436.082     -183794.28      1.5115078      19683               2283 
    603500   1974.088       226457.97     -197220.65      13428.158     -183792.49      1.5115078      19683               2283 
    604000   2036.9442      231985.54     -197671.12      13855.719     -183815.4       1.5115078      19683               2283 
    604500   2018.3423      237330.79     -197634.74      13729.185     -183905.55      1.5115078      19683               2283 
    605000   2006.2382      218827.13     -197722.95      13646.851     -184076.1       1.5115078      19683               2283 
    605500   1961.0047      233860.74     -197655.63      13339.163     -184316.47      1.5115078      19683               2283 
    606000   1962.4203      226948.02     -197842.91      13348.792     -184494.12      1.5115078      19683               2283 
    606500   1985.2746      223329.22     -198062.76      13504.252     -184558.51      1.5115078      19683               2283 
    607000   1988.6758      222481.85     -198104.28      13527.387     -184576.89      1.5115078      19683               2283 
    607500   1968.4885      222432.76     -197872.47      13390.069     -184482.4       1.5115078      19683               2283 
    608000   1994.0152      229509.4      -197788.03      13563.707     -184224.32      1.5115078      19683               2283 
    608500   1990.5695      215268.75     -197401.79      13540.269     -183861.53      1.5115078      19683               2283 
    609000   2009.6664      233923.78     -197316.01      13670.17      -183645.84      1.5115078      19683               2283 
    609500   2031.3642      229420.08     -197400.28      13817.763     -183582.52      1.5115078      19683               2283 
    610000   2056.1796      228981.23     -197584.63      13986.563     -183598.07      1.5115078      19683               2283 
    610500   2049.4034      211194.23     -197649.06      13940.469     -183708.59      1.5115078      19683               2283 
    611000   2030.4446      224268.09     -197714.14      13811.507     -183902.63      1.5115078      19683               2283 
    611500   2006.0527      219139.81     -197740.24      13645.589     -184094.65      1.5115078      19683               2283 
    612000   2001.7197      222742.04     -197844.92      13616.115     -184228.81      1.5115078      19683               2283 
    612500   1992.5476      216613.14     -197848.76      13553.725     -184295.04      1.5115078      19683               2283 
    613000   1980.5913      226389.45     -197782.25      13472.395     -184309.86      1.5115078      19683               2283 
    613500   1992.1733      228392.93     -197813.57      13551.178     -184262.4       1.5115078      19683               2283 
    614000   2039.461       216355.21     -198078.8       13872.839     -184205.96      1.5115078      19683               2283 
    614500   1993.0722      219492.73     -197735.74      13557.292     -184178.44      1.5115078      19683               2283 
    615000   2018.0608      221690.73     -197889.93      13727.271     -184162.66      1.5115078      19683               2283 
    615500   2020.9696      217041.3      -197931.96      13747.057     -184184.91      1.5115078      19683               2283 
    616000   1989.6946      225579        -197825.98      13534.317     -184291.67      1.5115078      19683               2283 
    616500   1988.0528      222691.35     -198117.35      13523.149     -184594.2       1.5115078      19683               2283 
    617000   1920.8214      216232.29     -197930.05      13065.828     -184864.22      1.5115078      19683               2283 
    617500   1928.9104      210878.47     -198017.17      13120.851     -184896.31      1.5115078      19683               2283 
    618000   1982.1379      223618.01     -198247.01      13482.915     -184764.09      1.5115078      19683               2283 
    618500   2009.6969      221111.55     -198199.64      13670.378     -184529.26      1.5115078      19683               2283 
    619000   1988.1955      217833.94     -197810.2       13524.12      -184286.08      1.5115078      19683               2283 
    619500   1977.9386      219454.06     -197609.51      13454.351     -184155.16      1.5115078      19683               2283 
    620000   2025.2207      226074.43     -197855.77      13775.974     -184079.79      1.5115078      19683               2283 
    620500   1990.5602      219954.18     -197561.72      13540.206     -184021.52      1.5115078      19683               2283 
    621000   2028.3398      233904.14     -197776.27      13797.19      -183979.08      1.5115078      19683               2283 
    621500   2009.9117      219744.81     -197624.96      13671.839     -183953.12      1.5115078      19683               2283 
    622000   1972.4951      227575.18     -197438.36      13417.323     -184021.03      1.5115078      19683               2283 
    622500   1998.0756      221745.13     -197838.03      13591.327     -184246.7       1.5115078      19683               2283 
    623000   1947.2923      230356.98     -197817.33      13245.888     -184571.45      1.5115078      19683               2283 
    623500   1989.3845      213269.72     -198283.05      13532.208     -184750.84      1.5115078      19683               2283 
    624000   1955.265       220920.2      -198068.21      13300.12      -184768.09      1.5115078      19683               2283 
    624500   1952.9947      221894.33     -197921.58      13284.677     -184636.9       1.5115078      19683               2283 
    625000   1972.3517      221343.8      -197864.67      13416.348     -184448.33      1.5115078      19683               2283 
    625500   1993.5297      223914.44     -197784.74      13560.405     -184224.33      1.5115078      19683               2283 
    626000   1994.2018      219653.45     -197638.55      13564.977     -184073.57      1.5115078      19683               2283 
    626500   2015.6081      222292.4      -197707.97      13710.587     -183997.39      1.5115078      19683               2283 
    627000   2005.8925      209292.26     -197615.56      13644.499     -183971.06      1.5115078      19683               2283 
    627500   2038.4866      221931.82     -197859.87      13866.211     -183993.65      1.5115078      19683               2283 
    628000   2046.638       221720.13     -197981.28      13921.659     -184059.62      1.5115078      19683               2283 
    628500   1988.3921      222896.35     -197729.21      13525.458     -184203.75      1.5115078      19683               2283 
    629000   1978.6268      220375.47     -197846.2       13459.032     -184387.16      1.5115078      19683               2283 
    629500   1974.8676      233811.95     -198019.81      13433.461     -184586.35      1.5115078      19683               2283 
    630000   1997.5346      213103.47     -198448.52      13587.647     -184860.87      1.5115078      19683               2283 
    630500   1919.4561      218762.84     -198140         13056.541     -185083.45      1.5115078      19683               2283 
    631000   1988.3533      216572.18     -198631.62      13525.194     -185106.42      1.5115078      19683               2283 
    631500   1937.3297      222029.07     -198070.77      13178.121     -184892.65      1.5115078      19683               2283 
    632000   1955.4316      215574.29     -197678.28      13301.253     -184377.02      1.5115078      19683               2283 
    632500   1983.8557      217259.73     -197632.46      13494.6       -184137.86      1.5115078      19683               2283 
    633000   1971.0719      231476.63     -197422.54      13407.642     -184014.9       1.5115078      19683               2283 
    633500   2027.6552      225637.97     -197700.24      13792.533     -183907.7       1.5115078      19683               2283 
    634000   2020.4219      229757.08     -197577.12      13743.331     -183833.79      1.5115078      19683               2283 
    634500   2011.1762      231523.11     -197509.51      13680.44      -183829.07      1.5115078      19683               2283 
    635000   2040.7281      221687.26     -197790.38      13881.458     -183908.92      1.5115078      19683               2283 
    635500   1945.5182      228412.37     -197265.74      13233.82      -184031.92      1.5115078      19683               2283 
    636000   1983.085       213812.04     -197649.76      13489.357     -184160.4       1.5115078      19683               2283 
    636500   1976.471       225565.88     -197808.49      13444.368     -184364.12      1.5115078      19683               2283 
    637000   1967.8427      231170.36     -197974.65      13385.677     -184588.97      1.5115078      19683               2283 
    637500   1973.5137      222100.17     -198126.69      13424.252     -184702.44      1.5115078      19683               2283 
    638000   1976.1625      217742.5      -198103.35      13442.269     -184661.08      1.5115078      19683               2283 
    638500   1966.9215      230039.19     -197888.31      13379.41      -184508.9       1.5115078      19683               2283 
    639000   1995.9541      225063.97     -197894.53      13576.896     -184317.63      1.5115078      19683               2283 
    639500   1977.9411      228126.97     -197630.42      13454.368     -184176.05      1.5115078      19683               2283 
    640000   2050.6532      219111.63     -198047.26      13948.97      -184098.29      1.5115078      19683               2283 
    640500   1984.3849      219340.72     -197598.22      13498.2       -184100.02      1.5115078      19683               2283 
    641000   2011.4335      218958.75     -197835.1       13682.19      -184152.91      1.5115078      19683               2283 
    641500   1987.0588      232474.92     -197761.23      13516.389     -184244.84      1.5115078      19683               2283 
    642000   1984.1672      231275.22     -197881.6       13496.719     -184384.88      1.5115078      19683               2283 
    642500   1974.3532      225442.24     -198041.97      13429.962     -184612.01      1.5115078      19683               2283 
    643000   1970.3609      212425.08     -198179.13      13402.805     -184776.32      1.5115078      19683               2283 
    643500   1980.8129      215513.33     -198241.99      13473.902     -184768.09      1.5115078      19683               2283 
    644000   2004.1784      220623.35     -198237.07      13632.84      -184604.23      1.5115078      19683               2283 
    644500   2035.4419      210298.04     -198091.87      13845.5       -184246.37      1.5115078      19683               2283 
    645000   2008.0561      230762.37     -197565.96      13659.216     -183906.74      1.5115078      19683               2283 
    645500   2086.7793      229381.96     -198004.05      14194.708     -183809.34      1.5115078      19683               2283 
    646000   2025.3473      226255.5      -197604.44      13776.835     -183827.6       1.5115078      19683               2283 
    646500   2045.9497      230484.07     -197829.16      13916.976     -183912.18      1.5115078      19683               2283 
    647000   1963.6491      235323.4      -197382.9       13357.151     -184025.75      1.5115078      19683               2283 
    647500   1985.676       219490.69     -197641.84      13506.982     -184134.86      1.5115078      19683               2283 
    648000   1975.8234      220639.45     -197637.59      13439.963     -184197.62      1.5115078      19683               2283 
    648500   1975.9592      214331.25     -197646         13440.887     -184205.11      1.5115078      19683               2283 
    649000   1986.066       208034.65     -197682.83      13509.635     -184173.19      1.5115078      19683               2283 
    649500   2016.3486      229128.97     -197825.37      13715.623     -184109.74      1.5115078      19683               2283 
    650000   2038.9705      224472.5      -197814.33      13869.503     -183944.83      1.5115078      19683               2283 
    650500   2011.0653      235251.89     -197455.9       13679.685     -183776.21      1.5115078      19683               2283 
    651000   2043.7025      217845.76     -197525.22      13901.691     -183623.53      1.5115078      19683               2283 
    651500   2012.8602      225055.88     -197223.57      13691.895     -183531.68      1.5115078      19683               2283 
    652000   2029.7601      227882.55     -197331.1       13806.851     -183524.25      1.5115078      19683               2283 
    652500   2050.3575      222232.12     -197584.98      13946.96      -183638.02      1.5115078      19683               2283 
    653000   2026.7877      227008.09     -197677.1       13786.632     -183890.47      1.5115078      19683               2283 
    653500   1962.877       222284.59     -197516.08      13351.899     -184164.19      1.5115078      19683               2283 
    654000   1968.1262      222955.81     -197663.34      13387.605     -184275.73      1.5115078      19683               2283 
    654500   1950.957       219928.56     -197553.03      13270.816     -184282.22      1.5115078      19683               2283 
    655000   2021.2714      226920.06     -197967.56      13749.109     -184218.45      1.5115078      19683               2283 
    655500   1975.2981      225558.64     -197528.11      13436.39      -184091.72      1.5115078      19683               2283 
    656000   1959.6273      235368.14     -197272.98      13329.794     -183943.18      1.5115078      19683               2283 
    656500   1979.4797      226515.14     -197235.11      13464.833     -183770.28      1.5115078      19683               2283 
    657000   1987.403       217708.95     -197105.69      13518.73      -183586.96      1.5115078      19683               2283 
    657500   2035.7281      224016.6      -197116.43      13847.447     -183268.98      1.5115078      19683               2283 
    658000   2057.0041      226840.56     -196886.85      13992.171     -182894.68      1.5115078      19683               2283 
    658500   2100.0724      227293.1      -197078.53      14285.13      -182793.4       1.5115078      19683               2283 
    659000   2036.9792      231083.36     -196862.01      13855.957     -183006.05      1.5115078      19683               2283 
    659500   2015.1703      234446.52     -197019.58      13707.609     -183311.97      1.5115078      19683               2283 
    660000   2052.366       236062.55     -197434.38      13960.621     -183473.76      1.5115078      19683               2283 
    660500   2008.5423      230692.13     -197262.51      13662.524     -183599.99      1.5115078      19683               2283 
    661000   1996.7466      233242.6      -197355.04      13582.287     -183772.76      1.5115078      19683               2283 
    661500   1994.8206      221207.93     -197473.24      13569.186     -183904.06      1.5115078      19683               2283 
    662000   1989.7172      231790.29     -197550.88      13534.471     -184016.41      1.5115078      19683               2283 
    662500   2019.154       225684.41     -197790.05      13734.707     -184055.35      1.5115078      19683               2283 
    663000   1993.1363      229644.85     -197669.44      13557.729     -184111.71      1.5115078      19683               2283 
    663500   1970.344       223858        -197662.71      13402.691     -184260.01      1.5115078      19683               2283 
    664000   1971.6086      229327.14     -197853.57      13411.293     -184442.28      1.5115078      19683               2283 
    664500   1982.9683      221226.94     -198135.43      13488.564     -184646.86      1.5115078      19683               2283 
    665000   1976.7705      218778.51     -198251.84      13446.405     -184805.44      1.5115078      19683               2283 
    665500   1974.7742      221012.42     -198275.98      13432.826     -184843.15      1.5115078      19683               2283 
    666000   1983.4574      217275.27     -198276.26      13491.891     -184784.37      1.5115078      19683               2283 
    666500   1996.1826      217000.08     -198065.28      13578.45      -184486.83      1.5115078      19683               2283 
    667000   2021.2263      222645.89     -197880.49      13748.803     -184131.69      1.5115078      19683               2283 
    667500   2027.5696      237423.5      -197753.72      13791.951     -183961.77      1.5115078      19683               2283 
    668000   2036.3765      236455.93     -197756.39      13851.858     -183904.54      1.5115078      19683               2283 
    668500   1978.738       224240.76     -197321.39      13459.788     -183861.61      1.5115078      19683               2283 
    669000   2039.6292      224282.8      -197803.72      13873.983     -183929.73      1.5115078      19683               2283 
    669500   1995.5021      224327.96     -197680.05      13573.821     -184106.23      1.5115078      19683               2283 
    670000   1971.731       226387.47     -197820.78      13412.126     -184408.65      1.5115078      19683               2283 
    670500   1931.9329      223116.89     -197743.55      13141.41      -184602.14      1.5115078      19683               2283 
    671000   1973.0041      222895.96     -198005.33      13420.785     -184584.55      1.5115078      19683               2283 
    671500   1962.5425      223609.79     -197854.42      13349.624     -184504.8       1.5115078      19683               2283 
    672000   1996.8842      224555.62     -197951.98      13583.223     -184368.75      1.5115078      19683               2283 
    672500   1980.4313      237538.28     -197684.16      13471.307     -184212.86      1.5115078      19683               2283 
    673000   2021.6491      224793.57     -197783.42      13751.679     -184031.75      1.5115078      19683               2283 
    673500   2013.1271      232999.68     -197590.07      13693.71      -183896.36      1.5115078      19683               2283 
    674000   2009.3907      225978.5      -197487.87      13668.295     -183819.57      1.5115078      19683               2283 
    674500   2042.3628      224294.64     -197761.9       13892.578     -183869.32      1.5115078      19683               2283 
    675000   2011.709       227625.86     -197839.25      13684.064     -184155.18      1.5115078      19683               2283 
    675500   1989.6134      222576.06     -198057.37      13533.765     -184523.61      1.5115078      19683               2283 
    676000   1973.1374      227034.22     -198068.93      13421.692     -184647.24      1.5115078      19683               2283 
    676500   1950.1191      226719.57     -197872.32      13265.117     -184607.2       1.5115078      19683               2283 
    677000   1988.0792      219819        -197972.21      13523.329     -184448.88      1.5115078      19683               2283 
    677500   1954.0256      237160.78     -197536.73      13291.69      -184245.04      1.5115078      19683               2283 
    678000   2033.8057      218790.59     -197840.97      13834.371     -184006.6       1.5115078      19683               2283 
    678500   2028.4889      232263.12     -197682.22      13798.204     -183884.01      1.5115078      19683               2283 
    679000   2035.6736      220985.31     -197700.66      13847.077     -183853.58      1.5115078      19683               2283 
    679500   1998.7303      226869.38     -197476.66      13595.78      -183880.88      1.5115078      19683               2283 
    680000   1979.2997      227881.32     -197422.02      13463.609     -183958.41      1.5115078      19683               2283 
    680500   1996.55        233579.39     -197605.07      13580.949     -184024.12      1.5115078      19683               2283 
    681000   2008.4342      229913.77     -197720.26      13661.788     -184058.47      1.5115078      19683               2283 
    681500   1982.2845      234706.15     -197547.92      13483.913     -184064.01      1.5115078      19683               2283 
    682000   2036.4217      231108.46     -197917.99      13852.165     -184065.82      1.5115078      19683               2283 
    682500   2060.6411      224150.61     -198107.85      14016.91      -184090.94      1.5115078      19683               2283 
    683000   1968.2017      230024.22     -197532.29      13388.118     -184144.17      1.5115078      19683               2283 
    683500   2039.3241      218748.05     -198041.44      13871.908     -184169.53      1.5115078      19683               2283 
    684000   1985.529       225908.41     -197710.74      13505.983     -184204.76      1.5115078      19683               2283 
    684500   2013.4715      222419.22     -197989.81      13696.053     -184293.76      1.5115078      19683               2283 
    685000   2005.2646      226351.96     -198144.79      13640.228     -184504.56      1.5115078      19683               2283 
    685500   1925.3886      229917.22     -197881.52      13096.895     -184784.62      1.5115078      19683               2283 
    686000   1925.1262      216144.42     -198024.16      13095.11      -184929.05      1.5115078      19683               2283 
    686500   1972.8467      225034.83     -198306.04      13419.715     -184886.32      1.5115078      19683               2283 
    687000   1975.2131      223603.44     -198088.45      13435.811     -184652.63      1.5115078      19683               2283 
    687500   2002.2489      222720.79     -197958.12      13619.715     -184338.4       1.5115078      19683               2283 
    688000   2022.127       236385.49     -197910.97      13754.929     -184156.04      1.5115078      19683               2283 
    688500   1976.2376      237555.5      -197546.81      13442.78      -184104.03      1.5115078      19683               2283 
    689000   2003.9268      234979.42     -197719.18      13631.128     -184088.05      1.5115078      19683               2283 
    689500   1989.1477      230332.36     -197600.13      13530.597     -184069.53      1.5115078      19683               2283 
    690000   2001.007       213814.73     -197675.47      13611.267     -184064.21      1.5115078      19683               2283 
    690500   2037.9167      225271.93     -197921.84      13862.335     -184059.5       1.5115078      19683               2283 
    691000   2008.9838      227794.93     -197755.07      13665.526     -184089.55      1.5115078      19683               2283 
    691500   2011.4292      228059.43     -197820.7       13682.161     -184138.54      1.5115078      19683               2283 
    692000   2033.4602      229187.63     -198088.14      13832.021     -184256.11      1.5115078      19683               2283 
    692500   1962.1296      224812.16     -197795.96      13346.815     -184449.15      1.5115078      19683               2283 
    693000   1915.4489      226661.56     -197600.06      13029.283     -184570.78      1.5115078      19683               2283 
    693500   1953.0083      214577.84     -197854.53      13284.769     -184569.76      1.5115078      19683               2283 
    694000   1976.3421      228824.74     -197852.81      13443.491     -184409.32      1.5115078      19683               2283 
    694500   2072.5031      221159.11     -198183.89      14097.598     -184086.29      1.5115078      19683               2283 
    695000   1989.5291      221076.65     -197366.92      13533.192     -183833.72      1.5115078      19683               2283 
    695500   2033.8582      223140.76     -197588.94      13834.728     -183754.21      1.5115078      19683               2283 
    696000   1981.7755      221193.93     -197250.31      13480.45      -183769.86      1.5115078      19683               2283 
    696500   2050.4455      219308.97     -197813.14      13947.558     -183865.58      1.5115078      19683               2283 
    697000   2003.3853      226126.84     -197674.29      13627.444     -184046.85      1.5115078      19683               2283 
    697500   1955.911       233198        -197470.06      13304.515     -184165.54      1.5115078      19683               2283 
    698000   2026.7721      227211.8      -197995.67      13786.526     -184209.15      1.5115078      19683               2283 
    698500   2004.0259      221066.69     -197814.48      13631.802     -184182.68      1.5115078      19683               2283 
    699000   1980.653       221662.08     -197646.99      13472.815     -184174.18      1.5115078      19683               2283 
    699500   2047.3109      223299.85     -198080.58      13926.236     -184154.34      1.5115078      19683               2283 
    700000   2017.267       224777.53     -197853.93      13721.871     -184132.06      1.5115078      19683               2283 
    700500   1963.11        231709.52     -197485.91      13353.483     -184132.43      1.5115078      19683               2283 
    701000   2014.9215      224385.59     -197857.25      13705.917     -184151.33      1.5115078      19683               2283 
    701500   2011.8421      224079.47     -197811.84      13684.969     -184126.87      1.5115078      19683               2283 
    702000   2013.7347      219025.41     -197817.78      13697.844     -184119.94      1.5115078      19683               2283 
    702500   2030.6696      221522.56     -197952.81      13813.038     -184139.77      1.5115078      19683               2283 
    703000   1946.2211      230027.68     -197413.57      13238.602     -184174.96      1.5115078      19683               2283 
    703500   2008.1849      233705.67     -197822.87      13660.092     -184162.77      1.5115078      19683               2283 
    704000   1993.9819      219364.44     -197696.17      13563.481     -184132.69      1.5115078      19683               2283 
    704500   2029.7277      216517.47     -197837.01      13806.631     -184030.38      1.5115078      19683               2283 
    705000   1985.6775      223998.29     -197420.64      13506.992     -183913.65      1.5115078      19683               2283 
    705500   1997.1203      227366.89     -197382.86      13584.828     -183798.03      1.5115078      19683               2283 
    706000   2042.3592      224020.23     -197588.51      13892.553     -183695.95      1.5115078      19683               2283 
    706500   2079.3586      223785.15     -197801.98      14144.231     -183657.75      1.5115078      19683               2283 
    707000   2028.25        227641.05     -197567.97      13796.58      -183771.39      1.5115078      19683               2283 
    707500   2030.0704      222134.08     -197870.19      13808.962     -184061.22      1.5115078      19683               2283 
    708000   2002.0138      226904.86     -197921.69      13618.116     -184303.58      1.5115078      19683               2283 
    708500   1976.0663      222824.59     -197874.84      13441.615     -184433.23      1.5115078      19683               2283 
    709000   1981.3959      227481.78     -197956.52      13477.868     -184478.65      1.5115078      19683               2283 
    709500   1970.2713      230521.7      -197886.48      13402.196     -184484.28      1.5115078      19683               2283 
    710000   1971.3234      229674.07     -197753.82      13409.353     -184344.46      1.5115078      19683               2283 
    710500   2006.5595      216241.4      -197727.99      13649.036     -184078.95      1.5115078      19683               2283 
    711000   1986.5327      236734.37     -197307         13512.81      -183794.19      1.5115078      19683               2283 
    711500   2050.5889      232233.51     -197629.51      13948.534     -183680.98      1.5115078      19683               2283 
    712000   2025.0551      223781.06     -197476.44      13774.847     -183701.6       1.5115078      19683               2283 
    712500   2048.6418      223108.59     -197723.89      13935.289     -183788.6       1.5115078      19683               2283 
    713000   2006.3159      228191.31     -197586.03      13647.379     -183938.65      1.5115078      19683               2283 
    713500   2003.8264      224507.83     -197705.51      13630.445     -184075.07      1.5115078      19683               2283 
    714000   2004.4583      227319.41     -197861.99      13634.744     -184227.24      1.5115078      19683               2283 
    714500   1941.2779      234098.36     -197540.37      13204.977     -184335.39      1.5115078      19683               2283 
    715000   1951.1224      222906.77     -197650.62      13271.942     -184378.68      1.5115078      19683               2283 
    715500   1993.3427      218108.26     -197886.57      13559.133     -184327.44      1.5115078      19683               2283 
    716000   1993.6051      227006.64     -197870.5       13560.918     -184309.58      1.5115078      19683               2283 
    716500   1999.0143      224808.2      -197816.43      13597.712     -184218.72      1.5115078      19683               2283 
    717000   2011.8447      230970.27     -197659.53      13684.987     -183974.54      1.5115078      19683               2283 
    717500   2034.9112      227302.98     -197543.6       13841.89      -183701.71      1.5115078      19683               2283 
    718000   2028.6085      231726.26     -197350.22      13799.018     -183551.2       1.5115078      19683               2283 
    718500   2017.4773      228436.08     -197272.73      13723.301     -183549.43      1.5115078      19683               2283 
    719000   2100.7352      227392.1      -197953.51      14289.639     -183663.88      1.5115078      19683               2283 
    719500   2045.9733      228291.74     -197916.9       13917.137     -183999.76      1.5115078      19683               2283 
    720000   1978.2845      221802.32     -197720.34      13456.704     -184263.64      1.5115078      19683               2283 
    720500   2016.4119      213063.24     -198067.02      13716.054     -184350.96      1.5115078      19683               2283 
    721000   1979.4197      215192.64     -197867.4       13464.425     -184402.97      1.5115078      19683               2283 
    721500   1977.8305      220025.13     -197906.6       13453.615     -184452.98      1.5115078      19683               2283 
    722000   1977.4821      226711.18     -197955.3       13451.246     -184504.06      1.5115078      19683               2283 
    722500   2028.5441      218449.86     -198358.05      13798.58      -184559.47      1.5115078      19683               2283 
    723000   1987.3652      216050.02     -198184.42      13518.473     -184665.94      1.5115078      19683               2283 
    723500   1943.0656      221290.17     -198004.2       13217.137     -184787.06      1.5115078      19683               2283 
    724000   1971.3437      226434.89     -198310.14      13409.491     -184900.65      1.5115078      19683               2283 
    724500   1943.71        225589.14     -198130.03      13221.521     -184908.51      1.5115078      19683               2283 
    725000   1992.0448      225593.51     -198273.76      13550.304     -184723.46      1.5115078      19683               2283 
    725500   2005.695       225550.33     -198010.15      13643.155     -184367         1.5115078      19683               2283 
    726000   1992.7639      230075.57     -197629.51      13555.196     -184074.31      1.5115078      19683               2283 
    726500   2010.189       231540.43     -197614         13673.725     -183940.28      1.5115078      19683               2283 
    727000   2007.275       230707.47     -197540.19      13653.903     -183886.29      1.5115078      19683               2283 
    727500   1990.6765      231370.71     -197467.91      13540.997     -183926.91      1.5115078      19683               2283 
    728000   2000.525       228320.97     -197659.21      13607.988     -184051.22      1.5115078      19683               2283 
    728500   1981.1817      226931.03     -197765.2       13476.411     -184288.79      1.5115078      19683               2283 
    729000   1936.587       235733.43     -197684.7       13173.068     -184511.63      1.5115078      19683               2283 
    729500   2006.946       212189.15     -198232.32      13651.665     -184580.66      1.5115078      19683               2283 
    730000   1972.9873      227009.91     -197981.56      13420.671     -184560.89      1.5115078      19683               2283 
    730500   1976.203       217983.32     -197915.29      13442.545     -184472.75      1.5115078      19683               2283 
    731000   1975.9736      224107.25     -197810.8       13440.984     -184369.82      1.5115078      19683               2283 
    731500   1987.1407      220577.49     -197782.52      13516.946     -184265.58      1.5115078      19683               2283 
    732000   2014.0137      237549.41     -197929.73      13699.741     -184229.99      1.5115078      19683               2283 
    732500   1990.4934      223941.31     -197733.18      13539.751     -184193.43      1.5115078      19683               2283 
    733000   2003.7755      225621.28     -197812.91      13630.099     -184182.81      1.5115078      19683               2283 
    733500   1993.7189      219171.96     -197724.65      13561.691     -184162.96      1.5115078      19683               2283 
    734000   2036.1936      229849.36     -197986.86      13850.613     -184136.24      1.5115078      19683               2283 
    734500   2008.6239      226967.77     -197838.54      13663.079     -184175.46      1.5115078      19683               2283 
    735000   2001.8439      225881.96     -197889.32      13616.959     -184272.36      1.5115078      19683               2283 
    735500   1985.6976      224641.85     -197903.12      13507.129     -184395.99      1.5115078      19683               2283 
    736000   2004.5311      222243.38     -198181.62      13635.239     -184546.38      1.5115078      19683               2283 
    736500   1979.4241      224446.25     -198118.99      13464.456     -184654.53      1.5115078      19683               2283 
    737000   1960.9792      229181.3      -198085.76      13338.989     -184746.77      1.5115078      19683               2283 
    737500   1928.4765      223441.91     -197880.56      13117.9       -184762.66      1.5115078      19683               2283 
    738000   1979.7686      220557.8      -198090.07      13466.799     -184623.28      1.5115078      19683               2283 
    738500   2006.3244      222758.72     -197950.97      13647.437     -184303.53      1.5115078      19683               2283 
    739000   2057.4621      227404.17     -198027.85      13995.286     -184032.56      1.5115078      19683               2283 
    739500   2040.0875      228065.2      -197788.09      13877.101     -183910.99      1.5115078      19683               2283 
    740000   2085.3637      213632.79     -198075.38      14185.079     -183890.3       1.5115078      19683               2283 
    740500   1981.1855      237312.77     -197449.86      13476.437     -183973.42      1.5115078      19683               2283 
    741000   2084.3631      221910.26     -198312.84      14178.273     -184134.57      1.5115078      19683               2283 
    741500   1950.6046      226607.25     -197601.89      13268.419     -184333.47      1.5115078      19683               2283 
    742000   1969.4302      209942.49     -197851.29      13396.475     -184454.81      1.5115078      19683               2283 
    742500   1987.3009      227064.05     -198042.98      13518.035     -184524.94      1.5115078      19683               2283 
    743000   1995.2549      225613.78     -198099.97      13572.14      -184527.83      1.5115078      19683               2283 
    743500   1990.624       214606.36     -198042.83      13540.639     -184502.19      1.5115078      19683               2283 
    744000   2002.2861      222080.37     -198061.71      13619.968     -184441.74      1.5115078      19683               2283 
    744500   1992.2677      227671.61     -197932.12      13551.82      -184380.3       1.5115078      19683               2283 
    745000   2045.5911      226468.55     -198186.69      13914.537     -184272.15      1.5115078      19683               2283 
    745500   1985.5759      226875.73     -197641.92      13506.301     -184135.62      1.5115078      19683               2283 
    746000   1985.0985      220427.95     -197511.77      13503.054     -184008.71      1.5115078      19683               2283 
    746500   2025.9451      216972.25     -197684.27      13780.901     -183903.37      1.5115078      19683               2283 
    747000   2044.8133      227522.74     -197546.73      13909.247     -183637.49      1.5115078      19683               2283 
    747500   2129.0839      225205.12     -197676.14      14482.473     -183193.67      1.5115078      19683               2283 
    748000   2072.7443      230830.51     -197152.29      14099.239     -183053.05      1.5115078      19683               2283 
    748500   2084.9121      228432.19     -197391.02      14182.007     -183209.01      1.5115078      19683               2283 
    749000   2076.2562      227487.94     -197687.54      14123.127     -183564.41      1.5115078      19683               2283 
    749500   2041.5878      226081.04     -197696.79      13887.306     -183809.48      1.5115078      19683               2283 
    750000   1992.1668      210240.14     -197573.74      13551.134     -184022.61      1.5115078      19683               2283 
    750500   2041.0069      220699.12     -198098.4       13883.354     -184215.04      1.5115078      19683               2283 
    751000   1996.6746      225767.97     -197977.77      13581.797     -184395.97      1.5115078      19683               2283 
    751500   1958.4365      237914.12     -197901.1       13321.694     -184579.41      1.5115078      19683               2283 
    752000   1975.2451      228118.51     -198114.07      13436.029     -184678.04      1.5115078      19683               2283 
    752500   1977.5083      222357.32     -198184.23      13451.424     -184732.81      1.5115078      19683               2283 
    753000   1976.073       216542.07     -198203.27      13441.66      -184761.61      1.5115078      19683               2283 
    753500   1974.0751      225557.9      -198122.54      13428.071     -184694.47      1.5115078      19683               2283 
    754000   1957.7326      228704.43     -197845.79      13316.905     -184528.89      1.5115078      19683               2283 
    754500   2011.2375      230180.45     -197916.31      13680.857     -184235.46      1.5115078      19683               2283 
    755000   2058.4944      238216.9      -197959.03      14002.308     -183956.73      1.5115078      19683               2283 
    755500   2023.8897      227099.95     -197677.01      13766.92      -183910.09      1.5115078      19683               2283 
    756000   2033.3204      224069.86     -197782.54      13831.07      -183951.47      1.5115078      19683               2283 
    756500   2013.9637      225925.19     -197814.25      13699.401     -184114.84      1.5115078      19683               2283 
    757000   1988.353       234420.7      -197878.01      13525.192     -184352.82      1.5115078      19683               2283 
    757500   1973.0399      210018.79     -197932.6       13421.029     -184511.57      1.5115078      19683               2283 
    758000   1996.259       223994.02     -198151.14      13578.97      -184572.17      1.5115078      19683               2283 
    758500   2019.1069      218378.06     -198320         13734.386     -184585.61      1.5115078      19683               2283 
    759000   1969.7596      222028.38     -197975.04      13398.716     -184576.32      1.5115078      19683               2283 
    759500   1984.1459      226198.42     -198028.74      13496.574     -184532.17      1.5115078      19683               2283 
    760000   2004.8306      215842        -198128.98      13637.276     -184491.71      1.5115078      19683               2283 
    760500   2003.6774      224855.29     -198061.42      13629.432     -184431.99      1.5115078      19683               2283 
    761000   2052.0448      225326.95     -198209.51      13958.437     -184251.07      1.5115078      19683               2283 
    761500   2020.0994      222249.63     -197726.24      13741.138     -183985.1       1.5115078      19683               2283 
    762000   2012.3531      222054.83     -197502.04      13688.445     -183813.6       1.5115078      19683               2283 
    762500   2017.8362      227526.1      -197458.69      13725.742     -183732.95      1.5115078      19683               2283 
    763000   2030.5857      237793.91     -197583.78      13812.467     -183771.32      1.5115078      19683               2283 
    763500   2043.7787      222874.9      -197952.94      13902.209     -184050.73      1.5115078      19683               2283 
    764000   2025.3174      225811.75     -198175.1       13776.631     -184398.47      1.5115078      19683               2283 
    764500   1951.0887      234263.5      -197819.52      13271.712     -184547.8       1.5115078      19683               2283 
    765000   1953.1639      228833.61     -197879.75      13285.828     -184593.92      1.5115078      19683               2283 
    765500   1978.673       233702.5      -198046.35      13459.347     -184587         1.5115078      19683               2283 
    766000   1989.4209      226012        -198044.08      13532.456     -184511.63      1.5115078      19683               2283 
    766500   1957.8602      221089.74     -197722.7       13317.773     -184404.93      1.5115078      19683               2283 
    767000   2010.2879      228232.92     -197897.54      13674.398     -184223.15      1.5115078      19683               2283 
    767500   2029.3541      228135.58     -197788.27      13804.09      -183984.18      1.5115078      19683               2283 
    768000   2071.6495      226147.84     -197847.3       14091.792     -183755.5       1.5115078      19683               2283 
    768500   2038.0642      227982.37     -197480.01      13863.338     -183616.67      1.5115078      19683               2283 
    769000   2021.3739      221842.79     -197400.78      13749.807     -183650.98      1.5115078      19683               2283 
    769500   1996.1986      231002.15     -197528.17      13578.559     -183949.61      1.5115078      19683               2283 
    770000   1973.7794      228606.1      -197744.3       13426.059     -184318.24      1.5115078      19683               2283 
    770500   1993.9261      221036.66     -198039.31      13563.101     -184476.21      1.5115078      19683               2283 
    771000   1995.2742      215827.07     -198068         13572.271     -184495.73      1.5115078      19683               2283 
    771500   1977.4234      225919.13     -197929.72      13450.847     -184478.87      1.5115078      19683               2283 
    772000   1981.3291      220490.12     -197889.67      13477.414     -184412.26      1.5115078      19683               2283 
    772500   1999.1629      222515.07     -197924.79      13598.723     -184326.07      1.5115078      19683               2283 
    773000   2033.0852      226474.24     -198050.97      13829.47      -184221.5       1.5115078      19683               2283 
    773500   2026.8391      216523.64     -197846.78      13786.982     -184059.8       1.5115078      19683               2283 
    774000   2016.1278      229964        -197548.06      13714.122     -183833.94      1.5115078      19683               2283 
    774500   1996.4452      226049        -197275.2       13580.237     -183694.96      1.5115078      19683               2283 
    775000   2025.3399      226202.59     -197425.69      13776.784     -183648.91      1.5115078      19683               2283 
    775500   2075.4535      227919.55     -197890.45      14117.668     -183772.78      1.5115078      19683               2283 
    776000   1998.27        220589.78     -197734.31      13592.649     -184141.66      1.5115078      19683               2283 
    776500   1967.0599      224971.07     -197794.12      13380.351     -184413.77      1.5115078      19683               2283 
    777000   1978.1349      218616.1      -197948.46      13455.686     -184492.77      1.5115078      19683               2283 
    777500   1943.4273      215892.16     -197739.84      13219.597     -184520.25      1.5115078      19683               2283 
    778000   2009.4376      221135.51     -198137.84      13668.614     -184469.23      1.5115078      19683               2283 
    778500   2015.7184      215043.23     -198067.41      13711.337     -184356.07      1.5115078      19683               2283 
    779000   2008.3055      231936.68     -197879.02      13660.913     -184218.11      1.5115078      19683               2283 
    779500   2029.6507      218601.04     -197855.85      13806.107     -184049.75      1.5115078      19683               2283 
    780000   2021.781       224827.74     -197591.02      13752.576     -183838.44      1.5115078      19683               2283 
    780500   2067.8047      222613.3      -197681.08      14065.639     -183615.44      1.5115078      19683               2283 
    781000   2051.3975      224155.2      -197463.61      13954.034     -183509.57      1.5115078      19683               2283 
    781500   2060.4675      240983.72     -197615.61      14015.73      -183599.88      1.5115078      19683               2283 
    782000   2032.803       225357.97     -197802.03      13827.55      -183974.48      1.5115078      19683               2283 
    782500   1994.9598      208218.38     -197870.43      13570.133     -184300.29      1.5115078      19683               2283 
    783000   1969.154       218907.64     -197842.38      13394.596     -184447.78      1.5115078      19683               2283 
    783500   1997.9841      222534.41     -198125.12      13590.705     -184534.42      1.5115078      19683               2283 
    784000   1987.0468      217457.46     -198062.18      13516.307     -184545.87      1.5115078      19683               2283 
    784500   2007.8687      216348.02     -198130.17      13657.941     -184472.23      1.5115078      19683               2283 
    785000   1954.2692      228538.37     -197613.3       13293.347     -184319.95      1.5115078      19683               2283 
    785500   2006.8511      223380.51     -197747.25      13651.02      -184096.23      1.5115078      19683               2283 
    786000   1960.5473      236482.43     -197221.91      13336.051     -183885.85      1.5115078      19683               2283 
    786500   2041.3162      231053.25     -197634.79      13885.458     -183749.34      1.5115078      19683               2283 
    787000   2049.9823      237659.53     -197622.92      13944.407     -183678.51      1.5115078      19683               2283 
    787500   2038.3898      214540.63     -197709.99      13865.552     -183844.44      1.5115078      19683               2283 
    788000   1964.8502      218108.67     -197635.87      13365.321     -184270.55      1.5115078      19683               2283 
    788500   2006.2668      220806.09     -198142.6       13647.045     -184495.56      1.5115078      19683               2283 
    789000   1985.6591      226195.89     -198066.75      13506.867     -184559.88      1.5115078      19683               2283 
    789500   1950.7945      230130.47     -197813.76      13269.711     -184544.05      1.5115078      19683               2283 
    790000   1958.6905      214948.59     -197786.13      13323.421     -184462.71      1.5115078      19683               2283 
    790500   2043.1874      223223.79     -198198.08      13898.186     -184299.89      1.5115078      19683               2283 
    791000   2046.1223      224852.29     -198005.02      13918.151     -184086.87      1.5115078      19683               2283 
    791500   2041.6558      228489.62     -197761.07      13887.768     -183873.3       1.5115078      19683               2283 
    792000   2043.6109      227520.39     -197633.62      13901.067     -183732.55      1.5115078      19683               2283 
    792500   2008.3608      224844.99     -197387.93      13661.289     -183726.64      1.5115078      19683               2283 
    793000   1951.6906      231558.45     -197253.84      13275.806     -183978.03      1.5115078      19683               2283 
    793500   1996.5331      225237.72     -197961.43      13580.834     -184380.6       1.5115078      19683               2283 
    794000   2023.3855      230796.24     -198329.5       13763.49      -184566.01      1.5115078      19683               2283 
    794500   2007.9953      212606.1      -198258.58      13658.803     -184599.77      1.5115078      19683               2283 
    795000   1996.6337      224266.03     -198150.11      13581.519     -184568.59      1.5115078      19683               2283 
    795500   1991.4822      225457.17     -198011.78      13546.477     -184465.3       1.5115078      19683               2283 
    796000   2023.1899      212658.25     -198011.22      13762.16      -184249.06      1.5115078      19683               2283 
    796500   2062.8321      220323.59     -198076.78      14031.814     -184044.97      1.5115078      19683               2283 
    797000   2026.7453      224764.74     -197717.41      13786.344     -183931.07      1.5115078      19683               2283 
    797500   1991.3852      233846.54     -197433.69      13545.817     -183887.87      1.5115078      19683               2283 
    798000   2057.4505      229234.01     -198023.64      13995.207     -184028.43      1.5115078      19683               2283 
    798500   1975.6387      226540.71     -197906.87      13438.707     -184468.16      1.5115078      19683               2283 
    799000   1994.8631      222983.38     -198289.93      13569.475     -184720.46      1.5115078      19683               2283 
    799500   1944.8824      222813.6      -197965.64      13229.495     -184736.15      1.5115078      19683               2283 
    800000   2019.0927      227656.17     -198364.84      13734.289     -184630.55      1.5115078      19683               2283 
    800500   1978.1796      234067.27     -197925.27      13455.99      -184469.28      1.5115078      19683               2283 
    801000   2042.7553      218582.95     -198150.08      13895.248     -184254.83      1.5115078      19683               2283 
    801500   2034.3788      236821.81     -197983.66      13838.269     -184145.39      1.5115078      19683               2283 
    802000   2015.1123      231844.02     -197865.51      13707.214     -184158.3       1.5115078      19683               2283 
    802500   2015.4477      230552.74     -197989.93      13709.496     -184280.44      1.5115078      19683               2283 
    803000   1972.7834      218395.92     -197917.76      13419.284     -184498.48      1.5115078      19683               2283 
    803500   1931.588       225176.03     -197935.43      13139.065     -184796.37      1.5115078      19683               2283 
    804000   1957.2237      222861.66     -198303.22      13313.444     -184989.78      1.5115078      19683               2283 
    804500   1987.3661      220816.39     -198533.6       13518.479     -185015.12      1.5115078      19683               2283 
    805000   1960.4116      224244.86     -198254.21      13335.128     -184919.08      1.5115078      19683               2283 
    805500   1966.3791      225051.41     -198132.59      13375.72      -184756.87      1.5115078      19683               2283 
    806000   1979.5767      227237.31     -198103.98      13465.493     -184638.49      1.5115078      19683               2283 
    806500   1956.0979      237048.61     -197851.88      13305.786     -184546.09      1.5115078      19683               2283 
    807000   1965.5298      220374.52     -197808.37      13369.944     -184438.43      1.5115078      19683               2283 
    807500   1966.6324      222262.71     -197704.78      13377.444     -184327.34      1.5115078      19683               2283 
    808000   1988.481       228098.95     -197706.18      13526.062     -184180.12      1.5115078      19683               2283 
    808500   2032.7124      215595.92     -197869.3       13826.934     -184042.37      1.5115078      19683               2283 
    809000   2018.9852      225729.21     -197701.42      13733.559     -183967.86      1.5115078      19683               2283 
    809500   2015.7666      234915.06     -197667.62      13711.665     -183955.96      1.5115078      19683               2283 
    810000   2030.707       222701.67     -197876.16      13813.293     -184062.87      1.5115078      19683               2283 
    810500   2008.9957      215623.02     -198027.76      13665.608     -184362.15      1.5115078      19683               2283 
    811000   1971.2585      221634.55     -198058.32      13408.912     -184649.41      1.5115078      19683               2283 
    811500   1928.629       227635.45     -197871.18      13118.936     -184752.24      1.5115078      19683               2283 
    812000   1971.0026      216891.77     -198111.09      13407.171     -184703.92      1.5115078      19683               2283 
    812500   1994.0784      223186.65     -198116.27      13564.137     -184552.13      1.5115078      19683               2283 
    813000   2015.0251      216739.72     -198052.02      13706.621     -184345.4       1.5115078      19683               2283 
    813500   2024.1128      217787.66     -197922.56      13768.438     -184154.13      1.5115078      19683               2283 
    814000   2047.2857      231937.4      -197988.71      13926.065     -184062.64      1.5115078      19683               2283 
    814500   1957.2595      228555.87     -197399.17      13313.688     -184085.49      1.5115078      19683               2283 
    815000   2032.4317      222249.83     -197989.83      13825.024     -184164.81      1.5115078      19683               2283 
    815500   2016.7127      222219.72     -197977.84      13718.1       -184259.74      1.5115078      19683               2283 
    816000   2013.0137      228203.78     -197992.3       13692.939     -184299.36      1.5115078      19683               2283 
    816500   2023.979       231014.81     -198092.42      13767.527     -184324.9       1.5115078      19683               2283 
    817000   1985.6745      220572.34     -197863.72      13506.972     -184356.75      1.5115078      19683               2283 
    817500   1998.8237      227394.19     -197966.49      13596.415     -184370.08      1.5115078      19683               2283 
    818000   1995.4887      244532.69     -197951.78      13573.73      -184378.05      1.5115078      19683               2283 
    818500   2006.6688      226391.22     -198033.05      13649.78      -184383.27      1.5115078      19683               2283 
    819000   1992.3044      222422.55     -197985.85      13552.07      -184433.78      1.5115078      19683               2283 
    819500   1947.938       224756.18     -197852.69      13250.28      -184602.41      1.5115078      19683               2283 
    820000   1963.6713      221221.76     -198153.32      13357.302     -184796.02      1.5115078      19683               2283 
    820500   1983.1175      223134.87     -198402.33      13489.579     -184912.75      1.5115078      19683               2283 
    821000   1936.0324      224951.46     -198073.4       13169.296     -184904.11      1.5115078      19683               2283 
    821500   1962.2099      235388.97     -198054.23      13347.361     -184706.87      1.5115078      19683               2283 
    822000   1986.0693      233809.66     -197847.55      13509.658     -184337.89      1.5115078      19683               2283 
    822500   2011.7352      230544.95     -197791.58      13684.242     -184107.34      1.5115078      19683               2283 
    823000   1964.0023      232359.63     -197375.92      13359.553     -184016.37      1.5115078      19683               2283 
    823500   2057.5019      226460.57     -197929.28      13995.557     -183933.72      1.5115078      19683               2283 
    824000   2046.1461      224718.77     -197915.5       13918.312     -183997.19      1.5115078      19683               2283 
    824500   1987.5573      235694.91     -197662.16      13519.779     -184142.38      1.5115078      19683               2283 
    825000   2005.2948      227328.99     -197949.92      13640.433     -184309.49      1.5115078      19683               2283 
    825500   1971.7776      221322.43     -197859.15      13412.443     -184446.71      1.5115078      19683               2283 
    826000   1997.8933      229411.28     -198133.47      13590.087     -184543.38      1.5115078      19683               2283 
    826500   1979.1085      220752.87     -198077.53      13462.308     -184615.22      1.5115078      19683               2283 
    827000   1948.0492      214654.14     -198084.34      13251.037     -184833.31      1.5115078      19683               2283 
    827500   1924.7372      226538.7      -198233.38      13092.464     -185140.92      1.5115078      19683               2283 
    828000   1928.8834      213322.14     -198359.01      13120.667     -185238.34      1.5115078      19683               2283 
    828500   1940.7414      215894.84     -198335.63      13201.328     -185134.3       1.5115078      19683               2283 
    829000   1929.8766      218230.55     -197953.84      13127.423     -184826.42      1.5115078      19683               2283 
    829500   1944.1772      227743.65     -197763.87      13224.699     -184539.17      1.5115078      19683               2283 
    830000   1988.5233      230458.51     -197909.17      13526.35      -184382.82      1.5115078      19683               2283 
    830500   2022.9578      223299.66     -198006.8       13760.581     -184246.22      1.5115078      19683               2283 
    831000   2004.4999      240156.36     -197761.38      13635.026     -184126.36      1.5115078      19683               2283 
    831500   2059.9983      230684.12     -198108.79      14012.538     -184096.25      1.5115078      19683               2283 
    832000   2061.2108      228012.73     -198127.93      14020.786     -184107.14      1.5115078      19683               2283 
    832500   2010.5518      220300.08     -197836.63      13676.192     -184160.43      1.5115078      19683               2283 
    833000   1949.0956      231987.41     -197590.74      13258.155     -184332.59      1.5115078      19683               2283 
    833500   2002.1893      225427.32     -198134.53      13619.309     -184515.22      1.5115078      19683               2283 
    834000   1948.9346      231695.34     -197925.22      13257.059     -184668.16      1.5115078      19683               2283 
    834500   1973.76        216540.87     -198205.6       13425.927     -184779.68      1.5115078      19683               2283 
    835000   1994.9123      209374.13     -198414.69      13569.809     -184844.88      1.5115078      19683               2283 
    835500   1985.6716      226060.44     -198235.95      13506.952     -184729         1.5115078      19683               2283 
    836000   1979.1586      226319.2      -197829.37      13462.65      -184366.72      1.5115078      19683               2283 
    836500   1996.9929      225983.01     -197621.31      13583.962     -184037.35      1.5115078      19683               2283 
    837000   2012.4746      220852.57     -197574.91      13689.272     -183885.64      1.5115078      19683               2283 
    837500   2003.2233      226832.83     -197473.18      13626.343     -183846.84      1.5115078      19683               2283 
    838000   2057.5905      218765.55     -197919.02      13996.16      -183922.86      1.5115078      19683               2283 
    838500   2034.6847      236634.94     -197971.2       13840.349     -184130.85      1.5115078      19683               2283 
    839000   2000.3143      236661.11     -197979.15      13606.555     -184372.6       1.5115078      19683               2283 
    839500   1974.102       220380.11     -197961.98      13428.253     -184533.72      1.5115078      19683               2283 
    840000   1990.1537      218209.4      -198139.56      13537.441     -184602.12      1.5115078      19683               2283 
    840500   1916.3794      221614.54     -197630.03      13035.612     -184594.42      1.5115078      19683               2283 
    841000   1946.9668      221675.69     -197766.64      13243.674     -184522.96      1.5115078      19683               2283 
    841500   1993.0616      220274.74     -197950.61      13557.221     -184393.39      1.5115078      19683               2283 
    842000   2006.2341      231146.85     -197924.44      13646.823     -184277.62      1.5115078      19683               2283 
    842500   2007.7904      222411.35     -197833.5       13657.409     -184176.09      1.5115078      19683               2283 
    843000   1992.7451      226753.6      -197657.4       13555.068     -184102.33      1.5115078      19683               2283 
    843500   1976.697       226698.9      -197499.9       13445.905     -184053.99      1.5115078      19683               2283 
    844000   2022.6097      231900.86     -197763.88      13758.213     -184005.66      1.5115078      19683               2283 
    844500   2016.0739      219464.87     -197659.38      13713.755     -183945.62      1.5115078      19683               2283 
    845000   2037.7096      226638.5      -197795.66      13860.926     -183934.74      1.5115078      19683               2283 
    845500   2058.0359      222821.34     -198036.93      13999.189     -184037.74      1.5115078      19683               2283 
    846000   2032.0323      233029.78     -198060.2       13822.307     -184237.89      1.5115078      19683               2283 
    846500   1993.034       225652.45     -198029.99      13557.033     -184472.96      1.5115078      19683               2283 
    847000   1993.2352      229064.48     -198213.14      13558.402     -184654.74      1.5115078      19683               2283 
    847500   1959.0976      234291.62     -198072.82      13326.19      -184746.63      1.5115078      19683               2283 
    848000   1944.3112      217413.62     -197931.89      13225.61      -184706.28      1.5115078      19683               2283 
    848500   2001.6149      232194.99     -198144.21      13615.402     -184528.81      1.5115078      19683               2283 
    849000   2017.1972      225081.7      -197954.75      13721.396     -184233.35      1.5115078      19683               2283 
    849500   2004.127       230064.21     -197664.3       13632.49      -184031.81      1.5115078      19683               2283 
    850000   2011.6864      227024.19     -197619.31      13683.91      -183935.4       1.5115078      19683               2283 
    850500   2047.3603      229147.83     -197889.31      13926.572     -183962.74      1.5115078      19683               2283 
    851000   2025.4364      225125.53     -197818.45      13777.441     -184041.01      1.5115078      19683               2283 
    851500   2035.1272      232281.31     -197987.38      13843.359     -184144.03      1.5115078      19683               2283 
    852000   2024.138       226312.62     -198122.85      13768.609     -184354.24      1.5115078      19683               2283 
    852500   1986.9203      218808.43     -198064.9       13515.446     -184549.45      1.5115078      19683               2283 
    853000   1994.4388      225073.64     -198150.9       13566.589     -184584.31      1.5115078      19683               2283 
    853500   2000.9852      221758.71     -198179.88      13611.119     -184568.76      1.5115078      19683               2283 
    854000   1997.207       214327.5      -198081.98      13585.419     -184496.56      1.5115078      19683               2283 
    854500   2008.4514      225539.61     -198102.66      13661.905     -184440.75      1.5115078      19683               2283 
    855000   1998.8744      226287.09     -198002.32      13596.761     -184405.55      1.5115078      19683               2283 
    855500   2019.7757      221675.76     -198103.83      13738.936     -184364.9       1.5115078      19683               2283 
    856000   1979.7403      224463.74     -197825.8       13466.606     -184359.2       1.5115078      19683               2283 
    856500   2065.0819      229630.39     -198390.52      14047.117     -184343.4       1.5115078      19683               2283 
    857000   1966.6292      231017.36     -197751.32      13377.422     -184373.9       1.5115078      19683               2283 
    857500   2015.6941      220452.13     -198101.73      13711.171     -184390.55      1.5115078      19683               2283 
    858000   1979.6773      228616.6      -197862.75      13466.178     -184396.58      1.5115078      19683               2283 
    858500   1970.8342      224775.76     -197769.19      13406.025     -184363.16      1.5115078      19683               2283 
    859000   2036.1334      222515.65     -198182.47      13850.204     -184332.27      1.5115078      19683               2283 
    859500   2001.4816      217567.89     -197937.58      13614.495     -184323.09      1.5115078      19683               2283 
    860000   2016.1421      225548.19     -198022.81      13714.219     -184308.59      1.5115078      19683               2283 
    860500   1977.0099      232142.5      -197808.76      13448.033     -184360.73      1.5115078      19683               2283 
    861000   2021.3351      221768.63     -198255.87      13749.543     -184506.32      1.5115078      19683               2283 
    861500   2005.7088      233672.83     -198347.94      13643.25      -184704.69      1.5115078      19683               2283 
    862000   2002.2515      210457.4      -198507.99      13619.732     -184888.26      1.5115078      19683               2283 
    862500   1935.3155      221294.57     -198156.31      13164.419     -184991.89      1.5115078      19683               2283 
    863000   1955.1638      219414.03     -198245.67      13299.432     -184946.24      1.5115078      19683               2283 
    863500   1961.8908      222734.38     -198104.52      13345.19      -184759.33      1.5115078      19683               2283 
    864000   2037.847       217948.21     -198288.5       13861.86      -184426.64      1.5115078      19683               2283 
    864500   2014.3862      235768.02     -197889.63      13702.275     -184187.35      1.5115078      19683               2283 
    865000   1995.6675      223513.51     -197663.1       13574.947     -184088.15      1.5115078      19683               2283 
    865500   1986.6618      221560.84     -197568.24      13513.688     -184054.55      1.5115078      19683               2283 
    866000   2031.6729      227033.46     -197931.6       13819.863     -184111.74      1.5115078      19683               2283 
    866500   2004.1652      238008.43     -197868.65      13632.75      -184235.9       1.5115078      19683               2283 
    867000   2004.6081      226356.48     -197958         13635.762     -184322.24      1.5115078      19683               2283 
    867500   1967.4482      225297.11     -197850.19      13382.993     -184467.2       1.5115078      19683               2283 
    868000   1975.0546      223851.66     -197990.68      13434.733     -184555.94      1.5115078      19683               2283 
    868500   2003.8954      230800.19     -198194.82      13630.915     -184563.9       1.5115078      19683               2283 
    869000   2033.1802      227354.85     -198254.31      13830.116     -184424.2       1.5115078      19683               2283 
    869500   2021.4949      232210.95     -197710.95      13750.63      -183960.32      1.5115078      19683               2283 
    870000   2063.3353      233519.51     -197729.72      14035.237     -183694.49      1.5115078      19683               2283 
    870500   2099.85        225122.38     -198022.64      14283.617     -183739.02      1.5115078      19683               2283 
    871000   2006.0667      235677.76     -197611.86      13645.684     -183966.17      1.5115078      19683               2283 
    871500   2040.8902      223916.75     -198079.45      13882.561     -184196.88      1.5115078      19683               2283 
    872000   2005.6478      231788.12     -198033.33      13642.835     -184390.49      1.5115078      19683               2283 
    872500   1996.7044      226979.64     -198126.74      13582         -184544.74      1.5115078      19683               2283 
    873000   1998.8047      223303.06     -198201.81      13596.286     -184605.52      1.5115078      19683               2283 
    873500   2004.9083      230273.19     -198263.61      13637.805     -184625.8       1.5115078      19683               2283 
    874000   1990.636       228363.52     -198216.52      13540.721     -184675.8       1.5115078      19683               2283 
    874500   1987.0336      224768.38     -198202.26      13516.217     -184686.05      1.5115078      19683               2283 
    875000   2009.5048      215936.95     -198263.83      13669.071     -184594.76      1.5115078      19683               2283 
    875500   2008.3245      229440.73     -197981.61      13661.042     -184320.56      1.5115078      19683               2283 
    876000   2044.9119      227800.57     -197888.93      13909.917     -183979.01      1.5115078      19683               2283 
    876500   2008.7545      227165.04     -197471.35      13663.967     -183807.38      1.5115078      19683               2283 
    877000   2050.046       226373.98     -197751.08      13944.841     -183806.24      1.5115078      19683               2283 
    877500   2092.5266      220087.11     -198130.66      14233.802     -183896.86      1.5115078      19683               2283 
    878000   2015.723       225259.21     -197894.59      13711.368     -184183.22      1.5115078      19683               2283 
    878500   1998.7172      226505.12     -198015.84      13595.691     -184420.15      1.5115078      19683               2283 
    879000   1969.0761      223752.65     -197924.5       13394.066     -184530.44      1.5115078      19683               2283 
    879500   1996.5248      227086.58     -198111.79      13580.778     -184531.01      1.5115078      19683               2283 
    880000   1956.9979      231549.6      -197805.21      13311.908     -184493.3       1.5115078      19683               2283 
    880500   2057.2418      217746.95     -198421.51      13993.788     -184427.72      1.5115078      19683               2283 
    881000   2000.5018      227590.75     -198009.43      13607.83      -184401.6       1.5115078      19683               2283 
    881500   1989.5887      220617.68     -197860.5       13533.597     -184326.91      1.5115078      19683               2283 
    882000   2008.9885      224481.02     -197939.22      13665.559     -184273.66      1.5115078      19683               2283 
    882500   2021.2132      233292.27     -197978.28      13748.714     -184229.56      1.5115078      19683               2283 
    883000   2018.3468      238714.91     -197967.32      13729.216     -184238.1       1.5115078      19683               2283 
    883500   2011.5592      220538.43     -198014.68      13683.045     -184331.63      1.5115078      19683               2283 
    884000   2010.7014      230039.03     -198211.99      13677.21      -184534.78      1.5115078      19683               2283 
    884500   1990.3716      234268.2      -198262.16      13538.923     -184723.24      1.5115078      19683               2283 
    885000   1995.0417      231152.9      -198357.81      13570.689     -184787.13      1.5115078      19683               2283 
    885500   1970.3652      219421.18     -198225.78      13402.835     -184822.95      1.5115078      19683               2283 
    886000   1954.0552      216847.63     -198122.9       13291.891     -184831.01      1.5115078      19683               2283 
    886500   1973.4327      228874.16     -198189.58      13423.701     -184765.88      1.5115078      19683               2283 
    887000   2003.5023      215445.86     -198096.53      13628.24      -184468.29      1.5115078      19683               2283 
    887500   2036.2604      228013.31     -198009.34      13851.068     -184158.27      1.5115078      19683               2283 
    888000   2019.0767      228111.91     -197718.74      13734.181     -183984.56      1.5115078      19683               2283 
    888500   2041.0806      235550.52     -197831.6       13883.856     -183947.74      1.5115078      19683               2283 
    889000   2098.109       225693.69     -198378.08      14271.775     -184106.31      1.5115078      19683               2283 
    889500   2030.6632      229141.89     -198209.7       13812.994     -184396.7       1.5115078      19683               2283 
    890000   2010.6016      230917.73     -198290.91      13676.531     -184614.38      1.5115078      19683               2283 
    890500   1990.6972      228281.31     -198301.87      13541.137     -184760.74      1.5115078      19683               2283 
    891000   1960.8658      223511.47     -198220.11      13338.218     -184881.89      1.5115078      19683               2283 
    891500   1945.6257      227620.01     -198160.63      13234.552     -184926.08      1.5115078      19683               2283 
    892000   1939.4657      223275.46     -198073.59      13192.65      -184880.94      1.5115078      19683               2283 
    892500   2021.0996      225260.38     -198452.2       13747.941     -184704.26      1.5115078      19683               2283 
    893000   2000.5447      229439.85     -198124.26      13608.122     -184516.14      1.5115078      19683               2283 
    893500   2039.5088      226726.33     -198128.13      13873.164     -184254.97      1.5115078      19683               2283 
    894000   2066.4673      232907.12     -198156.27      14056.541     -184099.72      1.5115078      19683               2283 
    894500   2073.5949      219599.85     -198149         14105.025     -184043.98      1.5115078      19683               2283 
    895000   2070.9137      238284.09     -198254.57      14086.787     -184167.79      1.5115078      19683               2283 
    895500   2023.3541      227649.94     -198399.5       13763.276     -184636.22      1.5115078      19683               2283 
    896000   1958.0518      225485.93     -198205.64      13319.076     -184886.56      1.5115078      19683               2283 
    896500   1936.5175      220100.62     -198109.66      13172.596     -184937.06      1.5115078      19683               2283 
    897000   2011.93        222463.75     -198555.2       13685.568     -184869.63      1.5115078      19683               2283 
    897500   2013.9962      217333.44     -198441.81      13699.622     -184742.18      1.5115078      19683               2283 
    898000   1986.7101      228746.17     -198104.79      13514.016     -184590.78      1.5115078      19683               2283 
    898500   1998.1325      229559.26     -198050.2       13591.714     -184458.48      1.5115078      19683               2283 
    899000   2019.9597      221961.1      -198078.74      13740.187     -184338.55      1.5115078      19683               2283 
    899500   2031.844       221113.68     -198109.89      13821.027     -184288.86      1.5115078      19683               2283 
    900000   2066.8087      223239.97     -198453.09      14058.864     -184394.23      1.5115078      19683               2283 
    900500   2015.9207      224816.52     -198380.8       13712.713     -184668.08      1.5115078      19683               2283 
    901000   1913.0705      221736.36     -197989.84      13013.105     -184976.73      1.5115078      19683               2283 
    901500   1981.2962      235786.6      -198524.87      13477.19      -185047.68      1.5115078      19683               2283 
    902000   1963.3212      232184.1      -198353.86      13354.92      -184998.94      1.5115078      19683               2283 
    902500   1984.8714      219342.71     -198375.85      13501.509     -184874.34      1.5115078      19683               2283 
    903000   2014.5997      223284.84     -198382         13703.727     -184678.27      1.5115078      19683               2283 
    903500   2032.6474      225878.55     -198290.86      13826.492     -184464.37      1.5115078      19683               2283 
    904000   2034.5484      229378.37     -198224.27      13839.423     -184384.85      1.5115078      19683               2283 
    904500   2059.7863      226808.76     -198427.03      14011.096     -184415.94      1.5115078      19683               2283 
    905000   2005.4051      231029.24     -198182.68      13641.184     -184541.49      1.5115078      19683               2283 
    905500   2010.3525      233180.64     -198403.06      13674.837     -184728.23      1.5115078      19683               2283 
    906000   1919.0569      227500.5      -198248.77      13053.825     -185194.95      1.5115078      19683               2283 
    906500   1959.4368      220219.79     -198810.5       13328.497     -185482.01      1.5115078      19683               2283 
    907000   1923.6249      223694.2      -198541.66      13084.898     -185456.76      1.5115078      19683               2283 
    907500   1968.1171      221519.84     -198651.51      13387.543     -185263.96      1.5115078      19683               2283 
    908000   1989.8211      220729.82     -198552.51      13535.178     -185017.33      1.5115078      19683               2283 
    908500   1957.2055      222217.25     -198086.93      13313.32      -184773.61      1.5115078      19683               2283 
    909000   2024.8324      222176.08     -198333.39      13773.332     -184560.06      1.5115078      19683               2283 
    909500   1999.6566      233152.75     -198079.41      13602.081     -184477.33      1.5115078      19683               2283 
    910000   1998.6953      232337.06     -198037.95      13595.542     -184442.4       1.5115078      19683               2283 
    910500   2015.276       229742.16     -198153.48      13708.327     -184445.15      1.5115078      19683               2283 
    911000   2021.6749      227777.99     -198300.86      13751.854     -184549         1.5115078      19683               2283 
    911500   1973.9707      236918.8      -198213.73      13427.361     -184786.37      1.5115078      19683               2283 
    912000   1928.5103      218596.28     -198215.44      13118.129     -185097.31      1.5115078      19683               2283 
    912500   1886.4537      223780.32     -198086.67      12832.052     -185254.62      1.5115078      19683               2283 
    913000   1965.9655      217356.86     -198575.77      13372.907     -185202.86      1.5115078      19683               2283 
    913500   1959.2416      218551.51     -198379.11      13327.17      -185051.94      1.5115078      19683               2283 
    914000   1940.8949      234366.6      -198033.3       13202.372     -184830.93      1.5115078      19683               2283 
    914500   1959.1474      221711.98     -197989.35      13326.529     -184662.82      1.5115078      19683               2283 
    915000   2001.7911      215853.22     -198166.48      13616.6       -184549.88      1.5115078      19683               2283 
    915500   2030.1551      217016.05     -198256.49      13809.538     -184446.95      1.5115078      19683               2283 
    916000   1992.5972      222758.09     -197921.53      13554.062     -184367.46      1.5115078      19683               2283 
    916500   2026.2078      226229.85     -198094.22      13782.688     -184311.53      1.5115078      19683               2283 
    917000   2004.6783      233410.87     -197913.69      13636.24      -184277.45      1.5115078      19683               2283 
    917500   2021.8902      217293.05     -197980.13      13753.318     -184226.81      1.5115078      19683               2283 
    918000   1988.3605      228238.9      -197722.28      13525.243     -184197.03      1.5115078      19683               2283 
    918500   2054.9271      224979.38     -198181.08      13978.043     -184203.04      1.5115078      19683               2283 
    919000   2060.8991      228074        -198370.96      14018.666     -184352.3       1.5115078      19683               2283 
    919500   1983.0227      232849.22     -198116.02      13488.934     -184627.08      1.5115078      19683               2283 
    920000   1997.9946      227235.82     -198439.66      13590.776     -184848.88      1.5115078      19683               2283 
    920500   1986.6997      224835.51     -198501.47      13513.946     -184987.52      1.5115078      19683               2283 
    921000   1948.9783      219401.03     -198281.78      13257.357     -185024.42      1.5115078      19683               2283 
    921500   1965.2917      235508.33     -198338.2       13368.324     -184969.88      1.5115078      19683               2283 
    922000   1991.2142      220234.29     -198372.06      13544.654     -184827.4       1.5115078      19683               2283 
    922500   2026.8115      218066.48     -198310.11      13786.794     -184523.31      1.5115078      19683               2283 
    923000   2039.2001      222748.3      -198117.43      13871.064     -184246.37      1.5115078      19683               2283 
    923500   2049.5395      234803.97     -198105.18      13941.395     -184163.79      1.5115078      19683               2283 
    924000   2035.1094      222543.5      -198033.11      13843.238     -184189.87      1.5115078      19683               2283 
    924500   2015.0872      225710.29     -197981.65      13707.044     -184274.61      1.5115078      19683               2283 
    925000   1982.5971      226804.45     -197853.9       13486.039     -184367.86      1.5115078      19683               2283 
    925500   2025.0427      226759.72     -198273.38      13774.762     -184498.61      1.5115078      19683               2283 
    926000   1951.0603      237373.12     -197890.58      13271.519     -184619.06      1.5115078      19683               2283 
    926500   1994.8963      218998.67     -198265.34      13569.701     -184695.64      1.5115078      19683               2283 
    927000   1970.3801      223802.53     -198136.73      13402.937     -184733.79      1.5115078      19683               2283 
    927500   2000.3551      226440.38     -198322.41      13606.833     -184715.58      1.5115078      19683               2283 
    928000   1998.5598      224275.66     -198153.09      13594.621     -184558.47      1.5115078      19683               2283 
    928500   2010.0442      230982.71     -197818.81      13672.74      -184146.07      1.5115078      19683               2283 
    929000   2068.1383      227093.04     -197932.45      14067.908     -183864.54      1.5115078      19683               2283 
    929500   2016.3108      239657.37     -197578.04      13715.367     -183862.68      1.5115078      19683               2283 
    930000   2049.1182      222191.76     -197989.57      13938.529     -184051.04      1.5115078      19683               2283 
    930071   2049.8762      223164.98     -198021.65      13943.685     -184077.96      1.5115078      19683               2283 
Loop time of 24152.2 on 48 procs for 400000 steps with 2283 atoms

Performance: 0.143 ns/day, 167.723 hours/ns, 16.562 timesteps/s, 37.810 katom-step/s
99.5% CPU use with 12 MPI tasks x 4 OpenMP threads

MPI task timing breakdown:
Section |  min time  |  avg time  |  max time  |%varavg| %total
---------------------------------------------------------------
Pair    | 17338      | 17976      | 20523      | 730.8 | 74.43
Neigh   | 138.8      | 147.72     | 182.92     | 118.9 |  0.61
Comm    | 381.06     | 2923.8     | 3557.1     |1808.4 | 12.11
Output  | 0.14973    | 0.16773    | 0.19297    |   2.8 |  0.00
Modify  | 3057.5     | 3096.1     | 3108.2     |  29.3 | 12.82
Other   |            | 8.612      |            |       |  0.04

Nlocal:         190.25 ave         199 max         179 min
Histogram: 2 1 0 0 2 0 0 2 4 1
Nghost:        5193.83 ave        5203 max        5175 min
Histogram: 1 1 0 0 1 0 0 5 1 3
Neighs:         143581 ave      149986 max      135516 min
Histogram: 3 0 0 1 0 1 2 1 3 1

Total # of neighbors = 1722973
Ave neighs/atom = 754.69689
Neighbor list builds = 4365
Dangerous builds = 0
System init for write_restart ...
--- Condensation Stage 3/4 ---
Setting up Verlet run ...
  Unit style    : real
  Current step  : 930071
  Time step     : 0.1
Per MPI rank memory allocation (min/avg/max) = 368.5 | 374.5 | 380 Mbytes
   Step          Temp          Press          PotEng         KinEng         TotEng        Density         Volume        Atoms   
    930071   2049.8762      223164.94     -198021.65      13943.685     -184077.96      1.5115078      19683               2283 
    930500   1965.9865      229676.56     -197670.65      13373.05      -184297.6       1.5115078      19683               2283 
    931000   2052.2369      225162.28     -198396.98      13959.743     -184437.23      1.5115078      19683               2283 
    931500   1952.9019      232881.72     -197856.56      13284.046     -184572.52      1.5115078      19683               2283 
    932000   1968.1277      226453        -198032.3       13387.615     -184644.68      1.5115078      19683               2283 
    932500   2008.5666      229200.86     -198318.8       13662.689     -184656.12      1.5115078      19683               2283 
    933000   2016.7856      234898.85     -198415.5       13718.596     -184696.9       1.5115078      19683               2283 
    933500   2007.2473      233475.86     -198415.64      13653.715     -184761.93      1.5115078      19683               2283 
    934000   1983.555       221114.24     -198423.26      13492.555     -184930.71      1.5115078      19683               2283 
    934500   1891.1419      225775.53     -198094.64      12863.941     -185230.7       1.5115078      19683               2283 
    935000   1917.1151      221608.4      -198412.52      13040.617     -185371.9       1.5115078      19683               2283 
    935500   1928.6115      230563.78     -198360.59      13118.817     -185241.78      1.5115078      19683               2283 
    936000   1997.3776      221533.38     -198496.97      13586.579     -184910.39      1.5115078      19683               2283 
    936500   1976.2056      226446.18     -198126.38      13442.563     -184683.81      1.5115078      19683               2283 
    937000   2023.5897      237070.64     -198314.67      13764.879     -184549.79      1.5115078      19683               2283 
    937500   1983.1105      222955.99     -197974.73      13489.532     -184485.2       1.5115078      19683               2283 
    938000   2003.9331      226951.84     -198050.83      13631.171     -184419.66      1.5115078      19683               2283 
    938500   2010.9423      238394.24     -198046.55      13678.849     -184367.7       1.5115078      19683               2283 
    939000   2015.6721      231349.42     -198089.92      13711.022     -184378.89      1.5115078      19683               2283 
    939500   2019.5239      231120.83     -198210.92      13737.223     -184473.7       1.5115078      19683               2283 
    940000   1987.1624      225973.53     -198241.09      13517.093     -184724         1.5115078      19683               2283 
    940500   2008.8108      225736.65     -198655.86      13664.35      -184991.51      1.5115078      19683               2283 
    941000   2008.8195      227770.03     -198761.25      13664.409     -185096.84      1.5115078      19683               2283 
    941500   2005.459       231703.49     -198707.13      13641.55      -185065.58      1.5115078      19683               2283 
    942000   1989.4196      222736.39     -198466.23      13532.447     -184933.78      1.5115078      19683               2283 
    942500   1952.7248      222063.89     -198010.82      13282.841     -184727.98      1.5115078      19683               2283 
    943000   1982.1444      229801.7      -197996.04      13482.959     -184513.08      1.5115078      19683               2283 
    943500   1970.1987      221345.15     -197809.51      13401.703     -184407.8       1.5115078      19683               2283 
    944000   2014.3736      226804.76     -198036.88      13702.189     -184334.69      1.5115078      19683               2283 
    944500   2037.3235      225051.21     -198147.63      13858.299     -184289.33      1.5115078      19683               2283 
    945000   2020.8142      224569.01     -198075.15      13746         -184329.15      1.5115078      19683               2283 
    945500   2033.3525      224997.97     -198276.02      13831.288     -184444.73      1.5115078      19683               2283 
    946000   2022.2813      225500.73     -198385.65      13755.979     -184629.67      1.5115078      19683               2283 
    946500   1962.7071      214123.25     -198195.24      13350.743     -184844.49      1.5115078      19683               2283 
    947000   1969.8447      218209        -198395.57      13399.294     -184996.28      1.5115078      19683               2283 
    947500   1980.539       226132.21     -198507.94      13472.039     -185035.9       1.5115078      19683               2283 
    948000   1996.2308      220897.66     -198534.3       13578.778     -184955.52      1.5115078      19683               2283 
    948500   1946.7544      221550.76     -197872.17      13242.23      -184629.94      1.5115078      19683               2283 
    949000   1982.6258      232917.11     -197677.08      13486.234     -184190.85      1.5115078      19683               2283 
    949500   2061.2648      229859.68     -198077.61      14021.153     -184056.46      1.5115078      19683               2283 
    950000   2063.0613      230803.82     -198116.33      14033.374     -184082.96      1.5115078      19683               2283 
    950500   2037.4039      217293.24     -198092.11      13858.846     -184233.27      1.5115078      19683               2283 
    951000   2012.7177      228491.29     -198150.69      13690.925     -184459.77      1.5115078      19683               2283 
    951500   1967.694       222020.44     -198055.3       13384.665     -184670.63      1.5115078      19683               2283 
    952000   1997.7652      230492.37     -198406.61      13589.216     -184817.4       1.5115078      19683               2283 
    952500   2020.0778      224029.6      -198617.43      13740.99      -184876.44      1.5115078      19683               2283 
    953000   1931.4311      229263.72     -198003.21      13137.997     -184865.21      1.5115078      19683               2283 
    953500   2028.4989      217457.99     -198538.59      13798.272     -184740.32      1.5115078      19683               2283 
    954000   2033.4193      232900.46     -198394.58      13831.742     -184562.84      1.5115078      19683               2283 
    954500   2074.495       219671.11     -198400.74      14111.148     -184289.59      1.5115078      19683               2283 
    955000   1995.3821      224238.1      -197526.78      13573.005     -183953.77      1.5115078      19683               2283 
    955500   2056.2792      230592        -197719.71      13987.24      -183732.47      1.5115078      19683               2283 
    956000   2075.3363      241330.77     -197873.03      14116.871     -183756.16      1.5115078      19683               2283 
    956500   2112.3277      223823.65     -198274.83      14368.494     -183906.33      1.5115078      19683               2283 
    957000   2035.7271      222795.6      -197896.01      13847.44      -184048.57      1.5115078      19683               2283 
    957500   1977.7761      231235.69     -197682.29      13453.245     -184229.05      1.5115078      19683               2283 
    958000   2023.6331      223396.01     -198186.53      13765.174     -184421.36      1.5115078      19683               2283 
    958500   1980.7739      228529.67     -198100.11      13473.637     -184626.47      1.5115078      19683               2283 
    959000   1991.0754      229268.11     -198324.86      13543.71      -184781.15      1.5115078      19683               2283 
    959500   1974.3233      225587.34     -198305.74      13429.759     -184875.98      1.5115078      19683               2283 
    960000   1998.2362      222545.57     -198482.56      13592.419     -184890.14      1.5115078      19683               2283 
    960500   1981.106       222871.76     -198297.33      13475.896     -184821.44      1.5115078      19683               2283 
    961000   1956.1998      223742.5      -198021.68      13306.479     -184715.2       1.5115078      19683               2283 
    961500   2020.7053      224603.02     -198215.34      13745.259     -184470.08      1.5115078      19683               2283 
    962000   2028.1294      236759.18     -197944.16      13795.759     -184148.4       1.5115078      19683               2283 
    962500   2017.8307      231411.91     -197711.58      13725.705     -183985.87      1.5115078      19683               2283 
    963000   2045.4007      238019.43     -197900.05      13913.242     -183986.81      1.5115078      19683               2283 
    963500   2022.6858      223790.02     -197859.14      13758.73      -184100.41      1.5115078      19683               2283 
    964000   2005.4193      224486.15     -197940.34      13641.281     -184299.06      1.5115078      19683               2283 
    964500   1985.6853      227565.03     -197965.36      13507.045     -184458.31      1.5115078      19683               2283 
    965000   1980.1526      225963.74     -198011.58      13469.411     -184542.17      1.5115078      19683               2283 
    965500   2016.2882      224135.14     -198288.89      13715.213     -184573.67      1.5115078      19683               2283 
    966000   2029.9559      222387.45     -198389.74      13808.183     -184581.56      1.5115078      19683               2283 
    966500   1996.3947      219635.09     -198163.71      13579.893     -184583.82      1.5115078      19683               2283 
    967000   2006.0158      226764.45     -198174.92      13645.338     -184529.58      1.5115078      19683               2283 
    967500   2047.8112      214863.55     -198379.8       13929.639     -184450.16      1.5115078      19683               2283 
    968000   2019.2192      229320.78     -198090.86      13735.15      -184355.71      1.5115078      19683               2283 
    968500   2007.1278      225667.75     -197895.53      13652.902     -184242.63      1.5115078      19683               2283 
    969000   2010.8969      231512.5      -197772.78      13678.54      -184094.24      1.5115078      19683               2283 
    969500   2014.5611      229490.69     -197696.86      13703.464     -183993.39      1.5115078      19683               2283 
    970000   2013.052       234569.88     -197694.49      13693.2       -184001.29      1.5115078      19683               2283 
    970500   2032.9075      230478.14     -197990.64      13828.261     -184162.38      1.5115078      19683               2283 
    971000   1993.1835      229829.07     -198020.39      13558.05      -184462.34      1.5115078      19683               2283 
    971500   1997.3029      221812.73     -198269.54      13586.071     -184683.47      1.5115078      19683               2283 
    972000   1981.1314      224865.87     -198239.89      13476.069     -184763.82      1.5115078      19683               2283 
    972500   1936.3558      226127.83     -197953.66      13171.496     -184782.16      1.5115078      19683               2283 
    973000   1948.8604      226097.45     -197978.42      13256.555     -184721.87      1.5115078      19683               2283 
    973500   1998.7104      233775.81     -198205.1       13595.645     -184609.45      1.5115078      19683               2283 
    974000   1968.5828      231587.29     -197909.53      13390.711     -184518.82      1.5115078      19683               2283 
    974500   2021.3461      221010.73     -198148.02      13749.618     -184398.4       1.5115078      19683               2283 
    975000   2006.6376      227289.37     -197861.2       13649.567     -184211.64      1.5115078      19683               2283 
    975500   2020.6231      221306.35     -197807.01      13744.7       -184062.31      1.5115078      19683               2283 
    976000   2025.769       242161.8      -197797.88      13779.703     -184018.18      1.5115078      19683               2283 
    976500   2045.8956      233188.53     -198124.31      13916.608     -184207.7       1.5115078      19683               2283 
    977000   1957.8109      233367.83     -197811.55      13317.438     -184494.11      1.5115078      19683               2283 
    977500   2024.303       232884.14     -198439.87      13769.731     -184670.14      1.5115078      19683               2283 
    978000   1979.0094      222692.84     -198212.86      13461.635     -184751.23      1.5115078      19683               2283 
    978500   1953.5317      226592.23     -198059.54      13288.33      -184771.21      1.5115078      19683               2283 
    979000   1997.4877      216864.73     -198375.67      13587.328     -184788.34      1.5115078      19683               2283 
    979500   1997.84        225314.37     -198353.36      13589.724     -184763.63      1.5115078      19683               2283 
    980000   1985.1121      223331.44     -198159.8       13503.147     -184656.66      1.5115078      19683               2283 
    980500   2037.829       222635.68     -198257.92      13861.738     -184396.18      1.5115078      19683               2283 
    981000   2019.5249      227911.5      -197853.05      13737.23      -184115.82      1.5115078      19683               2283 
    981500   2041.0201      239637.12     -197839.28      13883.444     -183955.84      1.5115078      19683               2283 
    982000   2036.194       239761.06     -197820.18      13850.616     -183969.56      1.5115078      19683               2283 
    982500   2043.6623      223751.77     -198071.31      13901.417     -184169.89      1.5115078      19683               2283 
    983000   1994.447       226136.28     -198041.29      13566.644     -184474.65      1.5115078      19683               2283 
    983500   2021.4608      220678.18     -198424.93      13750.398     -184674.54      1.5115078      19683               2283 
    984000   2029.8771      226832.54     -198576.48      13807.647     -184768.84      1.5115078      19683               2283 
    984500   2010.7281      219773.17     -198506.05      13677.392     -184828.65      1.5115078      19683               2283 
    985000   1993.6764      230395.41     -198390.24      13561.403     -184828.84      1.5115078      19683               2283 
    985500   1991.9157      223940.14     -198304.74      13549.426     -184755.31      1.5115078      19683               2283 
    986000   1989.8105      220746.79     -198201.74      13535.106     -184666.63      1.5115078      19683               2283 
    986500   2014.3939      225338.66     -198248.57      13702.328     -184546.24      1.5115078      19683               2283 
    987000   2040.4822      227878.91     -198275.4       13879.785     -184395.62      1.5115078      19683               2283 
    987500   2072.6156      230110.5      -198323.19      14098.363     -184224.83      1.5115078      19683               2283 
    988000   2069.0739      228635.11     -198212.14      14074.272     -184137.87      1.5115078      19683               2283 
    988500   2018.864       234492.92     -197988.2       13732.734     -184255.47      1.5115078      19683               2283 
    989000   1974.916       228660.15     -198013.63      13433.791     -184579.83      1.5115078      19683               2283 
    989500   1966.3003      230750.7      -198231.72      13375.185     -184856.53      1.5115078      19683               2283 
    990000   1991.6601      227006.66     -198505.5       13547.687     -184957.81      1.5115078      19683               2283 
    990500   1983.598       227623.6      -198508.76      13492.847     -185015.91      1.5115078      19683               2283 
    991000   2004.7194      229239.14     -198675.29      13636.52      -185038.77      1.5115078      19683               2283 
    991500   1972.5766      220589.35     -198421.47      13417.877     -185003.59      1.5115078      19683               2283 
    992000   1962.8846      222131.56     -198307.06      13351.95      -184955.11      1.5115078      19683               2283 
    992500   2014.763       228465.52     -198546.97      13704.838     -184842.13      1.5115078      19683               2283 
    993000   2045.2518      221266.27     -198596.4       13912.229     -184684.17      1.5115078      19683               2283 
    993500   2049.9878      239501.98     -198440.91      13944.445     -184496.47      1.5115078      19683               2283 
    994000   2044.2274      222644.93     -198248.33      13905.261     -184343.06      1.5115078      19683               2283 
    994500   2054.4978      225985.81     -198233.02      13975.123     -184257.9       1.5115078      19683               2283 
    995000   1999.9278      229416.77     -197984.05      13603.926     -184380.13      1.5115078      19683               2283 
    995500   2061.4331      218247.01     -198686.38      14022.298     -184664.08      1.5115078      19683               2283 
    996000   2008.2928      223626.39     -198609.74      13660.826     -184948.92      1.5115078      19683               2283 
    996500   1977.923       229319.14     -198502.97      13454.245     -185048.72      1.5115078      19683               2283 
    997000   1977.7385      232422.44     -198464.89      13452.99      -185011.9       1.5115078      19683               2283 
    997500   2002.9827      229506.62     -198523.18      13624.706     -184898.47      1.5115078      19683               2283 
    998000   1996.6969      231139.43     -198330.17      13581.949     -184748.23      1.5115078      19683               2283 
    998500   2034.785       225759.04     -198440.31      13841.032     -184599.28      1.5115078      19683               2283 
    999000   2069.1003      228073.47     -198630.45      14074.452     -184556         1.5115078      19683               2283 
    999500   2016.7026      218224.71     -198303.99      13718.032     -184585.96      1.5115078      19683               2283 
   1000000   2020.8965      224072.08     -198418.6       13746.559     -184672.04      1.5115078      19683               2283 
   1000500   1995.8697      233781.35     -198292.97      13576.322     -184716.65      1.5115078      19683               2283 
   1001000   2000.4427      218793.89     -198310.47      13607.429     -184703.05      1.5115078      19683               2283 
   1001500   2006.8629      227137.95     -198356.41      13651.1       -184705.31      1.5115078      19683               2283 
   1002000   2054.0927      217163.83     -198632.32      13972.367     -184659.95      1.5115078      19683               2283 
   1002500   2007.3092      227136.75     -198308.67      13654.135     -184654.54      1.5115078      19683               2283 
   1003000   2004.7664      220822.06     -198308.92      13636.839     -184672.08      1.5115078      19683               2283 
   1003500   2007.3412      218514.41     -198421.68      13654.353     -184767.33      1.5115078      19683               2283 
   1004000   1955.8866      226755.29     -198258.21      13304.348     -184953.86      1.5115078      19683               2283 
   1004500   1965.8488      224256        -198566.51      13372.114     -185194.4       1.5115078      19683               2283 
   1005000   1942.4324      217552.47     -198647.49      13212.83      -185434.66      1.5115078      19683               2283 
   1005500   1974.1555      214161.64     -198926.28      13428.617     -185497.66      1.5115078      19683               2283 
   1006000   1953.7568      217742.95     -198647.66      13289.861     -185357.8       1.5115078      19683               2283 
   1006500   2021.3939      216163.6      -198745.36      13749.943     -184995.42      1.5115078      19683               2283 
   1007000   2031.69        229913.34     -198481.19      13819.979     -184661.21      1.5115078      19683               2283 
   1007500   2030.4996      225976.34     -198397.43      13811.882     -184585.55      1.5115078      19683               2283 
   1008000   1992.6607      238118.86     -198157.73      13554.494     -184603.24      1.5115078      19683               2283 
   1008500   2003.8351      216892.66     -198283.39      13630.504     -184652.88      1.5115078      19683               2283 
   1009000   2036.6268      224555.63     -198569.25      13853.561     -184715.68      1.5115078      19683               2283 
   1009500   1971.319       221892.46     -198171.53      13409.323     -184762.21      1.5115078      19683               2283 
   1010000   1983.1535      225627.11     -198307.63      13489.824     -184817.81      1.5115078      19683               2283 
   1010500   2019.3579      220153.76     -198675.7       13736.093     -184939.61      1.5115078      19683               2283 
   1011000   1970.4119      220412.39     -198528.28      13403.153     -185125.12      1.5115078      19683               2283 
   1011500   1964.3923      217812.52     -198691.16      13362.206     -185328.96      1.5115078      19683               2283 
   1012000   1947.2637      225483.53     -198638.92      13245.694     -185393.23      1.5115078      19683               2283 
   1012500   1961.3122      212101.51     -198646.7       13341.255     -185305.44      1.5115078      19683               2283 
   1013000   1994.2232      220602.09     -198554.83      13565.122     -184989.71      1.5115078      19683               2283 
   1013500   1942.2813      232228.16     -197834.5       13211.802     -184622.7       1.5115078      19683               2283 
   1014000   1997.9565      223256.97     -198071.15      13590.517     -184480.63      1.5115078      19683               2283 
   1014500   1990.2638      218304.89     -197969.29      13538.189     -184431.1       1.5115078      19683               2283 
   1015000   2054.0354      221397.82     -198420.59      13971.977     -184448.61      1.5115078      19683               2283 
   1015500   1975.3388      231695.51     -198026.44      13436.666     -184589.78      1.5115078      19683               2283 
   1016000   1991.4301      226102.91     -198321.4       13546.123     -184775.27      1.5115078      19683               2283 
   1016500   1987.7532      225219.25     -198451.64      13521.112     -184930.53      1.5115078      19683               2283 
   1017000   1982.18        219413.01     -198490.71      13483.202     -185007.51      1.5115078      19683               2283 
   1017500   1942.4544      218318.88     -198219.57      13212.98      -185006.59      1.5115078      19683               2283 
   1018000   1962.1018      219713.65     -198184.11      13346.626     -184837.49      1.5115078      19683               2283 
   1018500   2019.4288      224968.8      -198171.25      13736.575     -184434.67      1.5115078      19683               2283 
   1019000   2057.862       224045.48     -198193.71      13998.007     -184195.7       1.5115078      19683               2283 
   1019500   2081.986       232596.62     -198394.36      14162.103     -184232.26      1.5115078      19683               2283 
   1020000   2040.0528      226562.42     -198321.3       13876.865     -184444.44      1.5115078      19683               2283 
   1020500   2012.2996      229754.47     -198397.74      13688.082     -184709.66      1.5115078      19683               2283 
   1021000   2049.3336      225170.22     -198836.84      13939.995     -184896.85      1.5115078      19683               2283 
   1021500   1966.5868      230667.44     -198404.35      13377.134     -185027.22      1.5115078      19683               2283 
   1022000   2024.9958      224631.52     -198883.74      13774.444     -185109.3       1.5115078      19683               2283 
   1022500   1956.9854      222411.39     -198466.98      13311.823     -185155.16      1.5115078      19683               2283 
   1023000   1962.2859      219718.44     -198534.26      13347.878     -185186.38      1.5115078      19683               2283 
   1023500   1951.8985      238114.76     -198414.48      13277.221     -185137.26      1.5115078      19683               2283 
   1024000   2005.3559      231334.17     -198575.21      13640.849     -184934.36      1.5115078      19683               2283 
   1024500   2037.9779      221566.52     -198457.62      13862.75      -184594.87      1.5115078      19683               2283 
   1025000   2002.4035      231923.73     -198006.75      13620.766     -184385.98      1.5115078      19683               2283 
   1025500   2024.9366      231407.57     -198096.6       13774.041     -184322.56      1.5115078      19683               2283 
   1026000   2026.4753      225714.1      -198154.75      13784.508     -184370.25      1.5115078      19683               2283 
   1026500   2013.4044      236500.87     -198205.26      13695.597     -184509.67      1.5115078      19683               2283 
   1027000   1977.3937      231778.97     -198231.16      13450.645     -184780.51      1.5115078      19683               2283 
   1027500   1987.526       218387.85     -198527.17      13519.566     -185007.61      1.5115078      19683               2283 
   1028000   2022.9968      221022.3      -198846.56      13760.846     -185085.72      1.5115078      19683               2283 
   1028500   2005.3815      211719.57     -198685.16      13641.023     -185044.14      1.5115078      19683               2283 
   1029000   2015.5948      215919.26     -198703.64      13710.496     -184993.15      1.5115078      19683               2283 
   1029500   2003.3473      216094.12     -198558.67      13627.186     -184931.48      1.5115078      19683               2283 
   1030000   2045.2255      227042.28     -198761.44      13912.05      -184849.39      1.5115078      19683               2283 
   1030500   2004.2328      238631.54     -198385.04      13633.21      -184751.83      1.5115078      19683               2283 
   1031000   2002.1487      228053.5      -198268.77      13619.033     -184649.73      1.5115078      19683               2283 
   1031500   2021.9341      217263.56     -198343.01      13753.618     -184589.4       1.5115078      19683               2283 
   1032000   2008.3973      231702.93     -198232.24      13661.537     -184570.7       1.5115078      19683               2283 
   1032500   2051.6202      229960.63     -198589.98      13955.549     -184634.43      1.5115078      19683               2283 
   1033000   2008.7233      220929.8      -198529.06      13663.755     -184865.3       1.5115078      19683               2283 
   1033500   1979.0911      232675.07     -198592.85      13462.19      -185130.66      1.5115078      19683               2283 
   1034000   1981.6114      215798.42     -198784.86      13479.334     -185305.53      1.5115078      19683               2283 
   1034500   1947.6571      224174.82     -198586.14      13248.37      -185337.77      1.5115078      19683               2283 
   1035000   1996.0152      227754.17     -198881.23      13577.312     -185303.92      1.5115078      19683               2283 
   1035500   1992.2055      227219.48     -198692.4       13551.397     -185141         1.5115078      19683               2283 
   1036000   1983.8694      222674.14     -198378.92      13494.693     -184884.22      1.5115078      19683               2283 
   1036500   2014.1846      223587.89     -198330.76      13700.903     -184629.85      1.5115078      19683               2283 
   1037000   2074.0112      226233.35     -198623.39      14107.857     -184515.53      1.5115078      19683               2283 
   1037500   2033.0502      224095.96     -198399.91      13829.231     -184570.68      1.5115078      19683               2283 
   1038000   2059.6848      227254.62     -198662.36      14010.406     -184651.95      1.5115078      19683               2283 
   1038500   1962.6099      234007.36     -198130.44      13350.082     -184780.35      1.5115078      19683               2283 
   1039000   2024.4185      226665.36     -198683.92      13770.517     -184913.4       1.5115078      19683               2283 
   1039500   1979.242       219192.32     -198488.72      13463.217     -185025.5       1.5115078      19683               2283 
   1040000   1967.8138      226841.3      -198469.28      13385.48      -185083.8       1.5115078      19683               2283 
   1040500   2025.6362      220798.37     -198896.89      13778.8       -185118.09      1.5115078      19683               2283 
   1041000   1992.4344      225663.9      -198620.94      13552.955     -185067.99      1.5115078      19683               2283 
   1041500   1982.8201      234598.55     -198338.21      13487.556     -184850.65      1.5115078      19683               2283 
   1042000   2000.4864      226588.6      -198108.58      13607.726     -184500.86      1.5115078      19683               2283 
   1042500   2032.8651      226897.09     -198106.65      13827.972     -184278.68      1.5115078      19683               2283 
   1043000   2048.5233      241856.66     -198158.45      13934.483     -184223.97      1.5115078      19683               2283 
   1043500   2062.3661      226495.33     -198376.15      14028.644     -184347.5       1.5115078      19683               2283 
   1044000   2015.9734      236678.1      -198334.2       13713.071     -184621.12      1.5115078      19683               2283 
   1044500   2007.5984      229981.73     -198470.14      13656.103     -184814.04      1.5115078      19683               2283 
   1045000   1985.5091      222115.53     -198406.24      13505.847     -184900.39      1.5115078      19683               2283 
   1045500   1987.7363      225250.62     -198443.97      13520.997     -184922.98      1.5115078      19683               2283 
   1046000   1971.0301      211227.83     -198379.43      13407.358     -184972.07      1.5115078      19683               2283 
   1046500   2017.8349      220234.19     -198745.7       13725.734     -185019.97      1.5115078      19683               2283 
   1047000   2010.9285      234453.9      -198786.74      13678.755     -185107.99      1.5115078      19683               2283 
   1047500   1989.569       236788.18     -198716.13      13533.463     -185182.67      1.5115078      19683               2283 
   1048000   1993.0741      229516.52     -198789.69      13557.306     -185232.39      1.5115078      19683               2283 
   1048500   1951.691       230881.12     -198494.47      13275.809     -185218.66      1.5115078      19683               2283 
   1049000   1987.4876      222844.8      -198604.87      13519.305     -185085.56      1.5115078      19683               2283 
   1049500   2012.2089      224924.82     -198543.09      13687.465     -184855.62      1.5115078      19683               2283 
   1050000   2021.2377      226324.84     -198391.4       13748.88      -184642.52      1.5115078      19683               2283 
   1050500   2048.2376      232707.73     -198413.58      13932.539     -184481.04      1.5115078      19683               2283 
   1051000   2119.2952      225004.29     -198869.11      14415.888     -184453.22      1.5115078      19683               2283 
   1051500   2021.4349      227145.79     -198360.74      13750.222     -184610.52      1.5115078      19683               2283 
   1052000   2019.951       235880.81     -198673.41      13740.128     -184933.28      1.5115078      19683               2283 
   1052500   2020.8128      229337.25     -198891.82      13745.99      -185145.83      1.5115078      19683               2283 
   1053000   1989.127       218702.49     -198730.94      13530.456     -185200.48      1.5115078      19683               2283 
   1053500   1945.7616      227208.16     -198398.71      13235.476     -185163.23      1.5115078      19683               2283 
   1054000   1982.2374      236364.48     -198550.26      13483.592     -185066.67      1.5115078      19683               2283 
   1054500   1975.8608      228834.05     -198354.14      13440.217     -184913.92      1.5115078      19683               2283 
   1055000   2020.2125      225165.42     -198458.04      13741.907     -184716.14      1.5115078      19683               2283 
   1055500   2008.5049      226765.79     -198198.74      13662.269     -184536.47      1.5115078      19683               2283 
   1056000   2034.6387      236029.44     -198304.84      13840.037     -184464.81      1.5115078      19683               2283 
   1056500   2053.1088      229478.59     -198456.62      13965.674     -184490.95      1.5115078      19683               2283 
   1057000   1989.5088      226705.81     -198322.48      13533.054     -184789.43      1.5115078      19683               2283 
   1057500   1953.3993      226069.35     -198508.8       13287.429     -185221.37      1.5115078      19683               2283 
   1058000   1984.7227      229754.87     -198829.74      13500.498     -185329.24      1.5115078      19683               2283 
   1058500   1980.6239      229506.44     -198786.14      13472.617     -185313.53      1.5115078      19683               2283 
   1059000   1991.7543      215303.19     -198800.23      13548.328     -185251.9       1.5115078      19683               2283 
   1059500   1925.083       218444.96     -198242.02      13094.816     -185147.2       1.5115078      19683               2283 
   1060000   1969.5674      221024.89     -198336.06      13397.408     -184938.65      1.5115078      19683               2283 
   1060500   2015.8114      223989        -198384.51      13711.97      -184672.54      1.5115078      19683               2283 
   1061000   2037.7811      223267.67     -198377.44      13861.412     -184516.03      1.5115078      19683               2283 
   1061500   2025.7423      230131.1      -198301.38      13779.522     -184521.86      1.5115078      19683               2283 
   1062000   2045.9914      227098.18     -198533.47      13917.26      -184616.21      1.5115078      19683               2283 
   1062500   2034.8697      230400.32     -198655.5       13841.608     -184813.89      1.5115078      19683               2283 
   1063000   2029.1021      215456.96     -198762.51      13802.376     -184960.14      1.5115078      19683               2283 
   1063500   2011.3864      218633.54     -198705.82      13681.87      -185023.95      1.5115078      19683               2283 
   1064000   1966.9151      214928.75     -198426.63      13379.367     -185047.27      1.5115078      19683               2283 
   1064500   1960.9479      223125.61     -198343.58      13338.776     -185004.8       1.5115078      19683               2283 
   1065000   2027.1304      227116.39     -198693.05      13788.964     -184904.09      1.5115078      19683               2283 
   1065500   2053.9141      231593.76     -198778.4       13971.152     -184807.25      1.5115078      19683               2283 
   1066000   2018.6522      226907.66     -198529.2       13731.294     -184797.91      1.5115078      19683               2283 
   1066500   2010.2546      218472.86     -198581.43      13674.171     -184907.26      1.5115078      19683               2283 
   1067000   1942.0171      228162.21     -198425.04      13210.005     -185215.03      1.5115078      19683               2283 
   1067500   1926.3787      219386.96     -198566.37      13103.63      -185462.74      1.5115078      19683               2283 
   1068000   1939.4677      219600.15     -198670.53      13192.664     -185477.87      1.5115078      19683               2283 
   1068500   1949.4061      222846.23     -198625.41      13260.267     -185365.15      1.5115078      19683               2283 
   1069000   1967.9017      228426.16     -198525.69      13386.077     -185139.61      1.5115078      19683               2283 
   1069500   2043.5406      223446.55     -198798.29      13900.589     -184897.71      1.5115078      19683               2283 
   1070000   2004.6852      232482.96     -198425.06      13636.286     -184788.77      1.5115078      19683               2283 
   1070500   2039.3173      228965.07     -198612.88      13871.862     -184741.01      1.5115078      19683               2283 
   1071000   1981.0231      240423.03     -198264.94      13475.332     -184789.61      1.5115078      19683               2283 
   1071500   1997.0819      222239.29     -198402.3       13584.568     -184817.73      1.5115078      19683               2283 
   1072000   1994.5948      229688.92     -198439.73      13567.65      -184872.08      1.5115078      19683               2283 
   1072500   2019.6572      217438        -198699.64      13738.129     -184961.51      1.5115078      19683               2283 
   1073000   1972.7005      219421.13     -198536.62      13418.72      -185117.9       1.5115078      19683               2283 
   1073500   2024.2932      210685.83     -199058.18      13769.665     -185288.52      1.5115078      19683               2283 
   1074000   1936.6647      219141.27     -198698.63      13173.597     -185525.03      1.5115078      19683               2283 
   1074500   1924.5876      224218.87     -198861.27      13091.446     -185769.82      1.5115078      19683               2283 
   1075000   1929.0344      226659.78     -199090.72      13121.694     -185969.02      1.5115078      19683               2283 
   1075500   1928.6034      209865.34     -199116.74      13118.762     -185997.98      1.5115078      19683               2283 
   1076000   1949.9457      217380.89     -199024.11      13263.937     -185760.17      1.5115078      19683               2283 
   1076500   1981.4321      213990.14     -198763.94      13478.114     -185285.82      1.5115078      19683               2283 
   1077000   2011.4436      217623.97     -198700.81      13682.259     -185018.55      1.5115078      19683               2283 
   1077500   2023.8969      220999.03     -198611.39      13766.969     -184844.42      1.5115078      19683               2283 
   1078000   2070.9371      227729.07     -198803.35      14086.946     -184716.4       1.5115078      19683               2283 
   1078500   2026.06        228536.61     -198465.2       13781.682     -184683.52      1.5115078      19683               2283 
   1079000   2015.1178      228505.48     -198414.55      13707.251     -184707.29      1.5115078      19683               2283 
   1079500   2034.8925      224262.99     -198635.8       13841.763     -184794.04      1.5115078      19683               2283 
   1080000   2012.3192      220379.13     -198708.05      13688.215     -185019.84      1.5115078      19683               2283 
   1080500   1973.2681      220742.97     -198670.68      13422.581     -185248.1       1.5115078      19683               2283 
   1081000   1948.0201      220103.11     -198650.55      13250.839     -185399.71      1.5115078      19683               2283 
   1081500   1946.241       227701.86     -198626.53      13238.737     -185387.8       1.5115078      19683               2283 
   1082000   1944.0211      227859.64     -198540.15      13223.637     -185316.51      1.5115078      19683               2283 
   1082500   1969.0216      218119.21     -198545.58      13393.695     -185151.89      1.5115078      19683               2283 
   1083000   1971.9232      221399.33     -198359.68      13413.433     -184946.25      1.5115078      19683               2283 
   1083500   2044.5933      213862.85     -198676.76      13907.75      -184769.01      1.5115078      19683               2283 
   1084000   2026.1397      235766.5      -198433.1       13782.225     -184650.88      1.5115078      19683               2283 
   1084500   2059.3272      231266.55     -198431.36      14007.973     -184423.39      1.5115078      19683               2283 
   1085000   2051.4919      232743.39     -198000.34      13954.676     -184045.67      1.5115078      19683               2283 
   1085500   2093.4802      226411.65     -198138         14240.289     -183897.71      1.5115078      19683               2283 
   1086000   2066.9193      233678.85     -198115.58      14059.616     -184055.96      1.5115078      19683               2283 
   1086500   2041.278       227377.67     -198291.05      13885.199     -184405.85      1.5115078      19683               2283 
   1087000   2050.0895      234296.31     -198640.49      13945.137     -184695.36      1.5115078      19683               2283 
   1087500   1995.7078      226614.84     -198444.79      13575.221     -184869.57      1.5115078      19683               2283 
   1088000   1986.5687      219969.41     -198519.76      13513.055     -185006.7       1.5115078      19683               2283 
   1088500   2006.8954      227618.75     -198755.78      13651.321     -185104.46      1.5115078      19683               2283 
   1089000   1968.5589      223779.93     -198612.38      13390.548     -185221.83      1.5115078      19683               2283 
   1089500   2030.2735      218103.11     -199117.81      13810.344     -185307.47      1.5115078      19683               2283 
   1090000   2009.7495      218619.16     -199057.97      13670.735     -185387.24      1.5115078      19683               2283 
   1090500   1989.0651      221853.93     -198971.33      13530.035     -185441.3       1.5115078      19683               2283 
   1091000   1948.998       210041.53     -198693.6       13257.491     -185436.11      1.5115078      19683               2283 
   1091500   1977.0874      233116.8      -198697.63      13448.561     -185249.07      1.5115078      19683               2283 
   1092000   1995.5472      230093.76     -198467.75      13574.129     -184893.63      1.5115078      19683               2283 
   1092500   2035.9805      231276.31     -198467.19      13849.164     -184618.03      1.5115078      19683               2283 
   1093000   2024.7102      229586.5      -198343.1       13772.501     -184570.6       1.5115078      19683               2283 
   1093500   2029.7407      230768.9      -198480.91      13806.719     -184674.19      1.5115078      19683               2283 
   1094000   1998.9298      225651.29     -198433.65      13597.137     -184836.51      1.5115078      19683               2283 
   1094500   1986.4002      223178.5      -198489.56      13511.908     -184977.66      1.5115078      19683               2283 
   1095000   1964.4437      218481.57     -198477.19      13362.556     -185114.64      1.5115078      19683               2283 
   1095500   2007.0836      222776.94     -198885.22      13652.601     -185232.62      1.5115078      19683               2283 
   1096000   1988.6071      216003.65     -198859.04      13526.92      -185332.12      1.5115078      19683               2283 
   1096500   1911.98        220117.59     -198512.82      13005.687     -185507.13      1.5115078      19683               2283 
   1097000   1895.1251      229440.61     -198632         12891.036     -185740.96      1.5115078      19683               2283 
   1097500   1928.5406      220178.37     -199033.97      13118.335     -185915.64      1.5115078      19683               2283 
   1098000   1886.7434      222009.31     -198722.97      12834.022     -185888.95      1.5115078      19683               2283 
   1098500   1949.3193      223753.62     -198807.9       13259.677     -185548.23      1.5115078      19683               2283 
   1099000   1949.8374      220357.13     -198486.57      13263.2       -185223.37      1.5115078      19683               2283 
   1099500   1994.1996      222049.06     -198604.95      13564.962     -185039.99      1.5115078      19683               2283 
   1100000   1987.1885      224386.89     -198485.92      13517.271     -184968.65      1.5115078      19683               2283 
   1100500   2043.4068      218814.49     -198799.75      13899.679     -184900.07      1.5115078      19683               2283 
   1101000   2010.0615      220043.84     -198523.91      13672.858     -184851.05      1.5115078      19683               2283 
   1101500   2015.4991      218504.26     -198544.22      13709.845     -184834.38      1.5115078      19683               2283 
   1102000   1989.0159      218296.26     -198438.06      13529.701     -184908.36      1.5115078      19683               2283 
   1102500   1996.5071      227017.38     -198675.36      13580.658     -185094.7       1.5115078      19683               2283 
   1103000   2002.6338      226710.73     -198896.25      13622.333     -185273.92      1.5115078      19683               2283 
   1103500   1987.4736      220368.54     -198882.64      13519.21      -185363.43      1.5115078      19683               2283 
   1104000   1962.8362      221958.5      -198722.21      13351.621     -185370.59      1.5115078      19683               2283 
   1104500   2006.4279      228909.15     -198844.06      13648.141     -185195.92      1.5115078      19683               2283 
   1105000   1974.9938      226379.71     -198235.5       13434.32      -184801.18      1.5115078      19683               2283 
   1105500   2064.1418      219034.37     -198549.31      14040.723     -184508.59      1.5115078      19683               2283 
   1106000   2052.4605      229301.12     -198413.23      13961.264     -184451.97      1.5115078      19683               2283 
   1106500   1987.4893      233082.4      -198042.39      13519.317     -184523.07      1.5115078      19683               2283 
   1107000   2004.5101      220714.87     -198297.03      13635.096     -184661.93      1.5115078      19683               2283 
   1107500   2038.4972      226054.4      -198661.6       13866.283     -184795.32      1.5115078      19683               2283 
   1108000   1991.3873      224990.48     -198472.08      13545.832     -184926.25      1.5115078      19683               2283 
   1108500   1993.2629      219174.17     -198552.92      13558.59      -184994.33      1.5115078      19683               2283 
   1109000   1991.0856      231405.01     -198544.93      13543.779     -185001.15      1.5115078      19683               2283 
   1109500   1978.8118      223477.61     -198426.93      13460.29      -184966.64      1.5115078      19683               2283 
   1110000   2016.8275      224285.27     -198650.74      13718.881     -184931.86      1.5115078      19683               2283 
   1110500   2030.1099      238845.91     -198682.4       13809.231     -184873.17      1.5115078      19683               2283 
   1111000   1938.4437      232976.04     -198044.47      13185.698     -184858.77      1.5115078      19683               2283 
   1111500   2013.1082      226419.88     -198538.7       13693.582     -184845.12      1.5115078      19683               2283 
   1112000   1957.666       233204.76     -198172.42      13316.453     -184855.97      1.5115078      19683               2283 
   1112500   2019.6374      220922.16     -198610.56      13737.994     -184872.56      1.5115078      19683               2283 
   1113000   1995.6434      215660.42     -198507.74      13574.783     -184932.95      1.5115078      19683               2283 
   1113500   1972.5214      217850.35     -198540.22      13417.502     -185122.72      1.5115078      19683               2283 
   1114000   1949.74        219763.24     -198652         13262.538     -185389.46      1.5115078      19683               2283 
   1114500   1939.9462      218862.95     -198789.23      13195.919     -185593.32      1.5115078      19683               2283 
   1115000   1954.757       212692.56     -198986.49      13296.665     -185689.82      1.5115078      19683               2283 
   1115500   1931.6087      230360.59     -198749.37      13139.205     -185610.17      1.5115078      19683               2283 
   1116000   2025.385       224850.61     -199093.48      13777.091     -185316.39      1.5115078      19683               2283 
   1116500   1998.663       224744.5      -198616.11      13595.322     -185020.79      1.5115078      19683               2283 
   1117000   2043.3282      232408.26     -198769.34      13899.144     -184870.2       1.5115078      19683               2283 
   1117500   1981.7046      230630.29     -198343.38      13479.968     -184863.41      1.5115078      19683               2283 
   1118000   1979.1442      238360.64     -198298.96      13462.552     -184836.41      1.5115078      19683               2283 
   1118500   1970.9976      218986.57     -198212.78      13407.137     -184805.65      1.5115078      19683               2283 
   1119000   2011.7137      225544.75     -198503.62      13684.096     -184819.52      1.5115078      19683               2283 
   1119500   1971.0922      232074.17     -198332.33      13407.78      -184924.54      1.5115078      19683               2283 
   1120000   1971.5975      229176.98     -198507.62      13411.217     -185096.4       1.5115078      19683               2283 
   1120500   1987.1623      219029.01     -198882.49      13517.092     -185365.4       1.5115078      19683               2283 
   1121000   1944.8022      224860.13     -198774.73      13228.95      -185545.78      1.5115078      19683               2283 
   1121500   1945.2024      218219        -198817         13231.672     -185585.33      1.5115078      19683               2283 
   1122000   1954.4194      226176.39     -198755.57      13294.369     -185461.2       1.5115078      19683               2283 
   1122500   1976.9393      232282.87     -198575.58      13447.553     -185128.03      1.5115078      19683               2283 
   1123000   2024.8398      229911.96     -198611.3       13773.382     -184837.91      1.5115078      19683               2283 
   1123500   1985.9217      225907.65     -198262.19      13508.653     -184753.54      1.5115078      19683               2283 
   1124000   2027.6445      215940.16     -198550.13      13792.461     -184757.67      1.5115078      19683               2283 
   1124500   1985.8202      226084.04     -198354.26      13507.963     -184846.3       1.5115078      19683               2283 
   1125000   2008.2754      226078.12     -198646.42      13660.708     -184985.71      1.5115078      19683               2283 
   1125500   2004.3621      223258.13     -198811.34      13634.089     -185177.25      1.5115078      19683               2283 
   1126000   1962.9767      221532.13     -198683.52      13352.577     -185330.94      1.5115078      19683               2283 
   1126500   1977.2335      230730.65     -198822.35      13449.554     -185372.79      1.5115078      19683               2283 
   1127000   1983.9973      220115.93     -198740.62      13495.563     -185245.06      1.5115078      19683               2283 
   1127500   1972.2073      221540.63     -198341.41      13415.366     -184926.04      1.5115078      19683               2283 
   1128000   2020.127       225313.74     -198391.41      13741.325     -184650.09      1.5115078      19683               2283 
   1128500   2050.3147      233069.52     -198505.23      13946.668     -184558.56      1.5115078      19683               2283 
   1129000   2024.0551      229996.21     -198363.35      13768.045     -184595.31      1.5115078      19683               2283 
   1129500   1965.9376      238127.84     -198054.32      13372.718     -184681.6       1.5115078      19683               2283 
   1130000   2038.3963      232294.76     -198692.97      13865.597     -184827.37      1.5115078      19683               2283 
   1130500   1992.4788      231773.96     -198517         13553.256     -184963.75      1.5115078      19683               2283 
   1131000   1984.2741      225493.45     -198599.79      13497.446     -185102.34      1.5115078      19683               2283 
   1131500   1973.1433      220706.29     -198595.72      13421.732     -185173.99      1.5115078      19683               2283 
   1132000   1978.0552      226072.82     -198700.91      13455.144     -185245.76      1.5115078      19683               2283 
   1132500   1970.6344      226445.99     -198722.44      13404.666     -185317.77      1.5115078      19683               2283 
   1133000   1967.6549      217873.85     -198835.56      13384.399     -185451.16      1.5115078      19683               2283 
   1133500   1953.1708      227834.75     -198828.67      13285.875     -185542.8       1.5115078      19683               2283 
   1134000   1960.6001      219617.58     -198910.43      13336.41      -185574.02      1.5115078      19683               2283 
   1134500   1940.2803      226790.39     -198680.08      13198.191     -185481.89      1.5115078      19683               2283 
   1135000   1998.9115      226650.57     -198843.74      13597.013     -185246.73      1.5115078      19683               2283 
   1135500   2016.7699      229371.52     -198703.7       13718.489     -184985.21      1.5115078      19683               2283 
   1136000   2007.6635      227467.99     -198442.1       13656.546     -184785.55      1.5115078      19683               2283 
   1136500   2010.0696      225683.83     -198352.99      13672.913     -184680.08      1.5115078      19683               2283 
   1137000   2002.2163      227216.45     -198252.57      13619.493     -184633.07      1.5115078      19683               2283 
   1137500   2006.9944      232979.61     -198260.91      13651.995     -184608.92      1.5115078      19683               2283 
   1138000   2060.749       221742.13     -198647.38      14017.645     -184629.74      1.5115078      19683               2283 
   1138500   1991.7205      237287.82     -198407.08      13548.098     -184858.98      1.5115078      19683               2283 
   1139000   1953.0356      233961.06     -198535.54      13284.955     -185250.58      1.5115078      19683               2283 
   1139500   1953.617       219559.14     -198681.45      13288.91      -185392.54      1.5115078      19683               2283 
   1140000   1991.2968      218500.86     -198932.44      13545.216     -185387.23      1.5115078      19683               2283 
   1140500   1997.5017      229802.69     -198877.49      13587.423     -185290.07      1.5115078      19683               2283 
   1141000   2001.3025      220295.88     -198750.4       13613.277     -185137.12      1.5115078      19683               2283 
   1141500   1964.4252      226964.61     -198305.53      13362.43      -184943.1       1.5115078      19683               2283 
   1142000   2044.2527      227392.67     -198701.47      13905.433     -184796.04      1.5115078      19683               2283 
   1142500   2026.3373      233227.69     -198485.07      13783.569     -184701.5       1.5115078      19683               2283 
   1143000   2025.9953      232827.46     -198448.08      13781.242     -184666.84      1.5115078      19683               2283 
   1143500   2005.8759      229641.28     -198341.39      13644.386     -184697         1.5115078      19683               2283 
   1144000   1991.9612      226058.53     -198484.33      13549.735     -184934.6       1.5115078      19683               2283 
   1144500   1965.6709      226145.01     -198597.34      13370.903     -185226.43      1.5115078      19683               2283 
   1145000   1945.172       233052.41     -198631.55      13231.466     -185400.09      1.5115078      19683               2283 
   1145500   1947.1947      225476.24     -198698.88      13245.224     -185453.65      1.5115078      19683               2283 
   1146000   1941.0635      229393.12     -198610.16      13203.519     -185406.64      1.5115078      19683               2283 
   1146500   2011.317       221335.52     -198938.13      13681.398     -185256.73      1.5115078      19683               2283 
   1147000   1987.8003      225962.59     -198542.45      13521.432     -185021.02      1.5115078      19683               2283 
   1147500   2031.7418      228135.72     -198589.61      13820.332     -184769.28      1.5115078      19683               2283 
   1148000   2010.3533      234737.08     -198271.13      13674.842     -184596.29      1.5115078      19683               2283 
   1148500   2039.6217      224568.43     -198386.61      13873.932     -184512.68      1.5115078      19683               2283 
   1149000   2005.4758      231115.74     -198189.97      13641.665     -184548.31      1.5115078      19683               2283 
   1149500   2044.5669      223556.76     -198582.28      13907.571     -184674.71      1.5115078      19683               2283 
   1150000   2000.9341      223796.46     -198443.47      13610.771     -184832.7       1.5115078      19683               2283 
   1150500   1996           224892.83     -198509.93      13577.209     -184932.72      1.5115078      19683               2283 
   1151000   2012.2847      229056.23     -198660.98      13687.98      -184973         1.5115078      19683               2283 
   1151500   1993.9246      218590.97     -198528.05      13563.091     -184964.96      1.5115078      19683               2283 
   1152000   2012.5214      232767.13     -198621.14      13689.59      -184931.55      1.5115078      19683               2283 
   1152500   1984.2014      236690.35     -198322.02      13496.952     -184825.07      1.5115078      19683               2283 
   1153000   2035.7291      225018.13     -198585.63      13847.454     -184738.18      1.5115078      19683               2283 
   1153500   2018.3053      230511.63     -198439.74      13728.934     -184710.81      1.5115078      19683               2283 
   1154000   1995.1473      222278.78     -198276.11      13571.408     -184704.71      1.5115078      19683               2283 
   1154500   2015.8318      231967.58     -198499.92      13712.108     -184787.81      1.5115078      19683               2283 
   1155000   1972.4222      231099.95     -198455.94      13416.827     -185039.12      1.5115078      19683               2283 
   1155500   1959.8373      231129.98     -198677.7       13331.222     -185346.47      1.5115078      19683               2283 
   1156000   1922.2999      231240.15     -198540.32      13075.885     -185464.44      1.5115078      19683               2283 
   1156500   1964.4572      225065.78     -198773.44      13362.648     -185410.79      1.5115078      19683               2283 
   1157000   1974.5591      221439.07     -198684.71      13431.363     -185253.35      1.5115078      19683               2283 
   1157500   1990.0215      234683.88     -198562.07      13536.541     -185025.52      1.5115078      19683               2283 
   1158000   2013.3806      219406.45     -198481.37      13695.435     -184785.94      1.5115078      19683               2283 
   1158500   2015.4465      224666.67     -198333.78      13709.487     -184624.3       1.5115078      19683               2283 
   1159000   2058.4116      224487.49     -198573.2       14001.745     -184571.45      1.5115078      19683               2283 
   1159500   2034.5537      237070.27     -198496.1       13839.459     -184656.64      1.5115078      19683               2283 
   1160000   2055.0132      225424.18     -198757.89      13978.628     -184779.26      1.5115078      19683               2283 
   1160500   2012.4961      232664.16     -198542.02      13689.418     -184852.6       1.5115078      19683               2283 
   1161000   1978.7401      220873.14     -198370.43      13459.803     -184910.63      1.5115078      19683               2283 
   1161500   1993.9162      231873.31     -198487.85      13563.034     -184924.82      1.5115078      19683               2283 
   1162000   2009.1257      240308.57     -198606.39      13666.492     -184939.9       1.5115078      19683               2283 
   1162500   2060.0033      222488.15     -198944.79      14012.572     -184932.21      1.5115078      19683               2283 
   1163000   1999.6883      231915.27     -198565.3       13602.297     -184963.01      1.5115078      19683               2283 
   1163500   1968.6908      228491.3      -198534.66      13391.446     -185143.21      1.5115078      19683               2283 
   1164000   1992.9599      226740.13     -198887.09      13556.529     -185330.56      1.5115078      19683               2283 
   1164500   1934.7226      222952.66     -198562.13      13160.387     -185401.74      1.5115078      19683               2283 
   1165000   2013.7476      222011.81     -198997.31      13697.931     -185299.37      1.5115078      19683               2283 
   1165500   1976.7633      242229.56     -198542.86      13446.356     -185096.51      1.5115078      19683               2283 
   1166000   1986.3064      226102.06     -198335.4       13511.27      -184824.13      1.5115078      19683               2283 
   1166500   2049.109       230286.73     -198552.66      13938.467     -184614.19      1.5115078      19683               2283 
   1167000   2062.793       230428.67     -198524.95      14031.548     -184493.41      1.5115078      19683               2283 
   1167500   2048.0793      231945.92     -198454.54      13931.462     -184523.08      1.5115078      19683               2283 
   1168000   2030.0757      226167.42     -198470.04      13808.998     -184661.05      1.5115078      19683               2283 
   1168500   2007.7188      247483.3      -198473.47      13656.922     -184816.55      1.5115078      19683               2283 
   1169000   1978.6971      227798.95     -198368.37      13459.51      -184908.86      1.5115078      19683               2283 
   1169500   2009.7558      230637.1      -198655.82      13670.778     -184985.05      1.5115078      19683               2283 
   1170000   2016.3837      223645.72     -198726.66      13715.862     -185010.8       1.5115078      19683               2283 
   1170500   2049.5766      224297.35     -199010.71      13941.648     -185069.06      1.5115078      19683               2283 
   1171000   1982.8066      224436.94     -198655.91      13487.464     -185168.44      1.5115078      19683               2283 
   1171500   1972.1607      222736.87     -198685.1       13415.049     -185270.06      1.5115078      19683               2283 
   1172000   2004.5546      224350.57     -198993.59      13635.398     -185358.19      1.5115078      19683               2283 
   1172500   1998.5027      234569.5      -199048.42      13594.232     -185454.19      1.5115078      19683               2283 
   1173000   1986.3967      226127.78     -199063.44      13511.885     -185551.55      1.5115078      19683               2283 
   1173500   1934.2273      226998.81     -198731.44      13157.017     -185574.42      1.5115078      19683               2283 
   1174000   1967.81        222519.6      -198831.62      13385.454     -185446.16      1.5115078      19683               2283 
   1174500   1967.193       232890.89     -198525.75      13381.257     -185144.49      1.5115078      19683               2283 
   1175000   2023.7507      222420.14     -198625.23      13765.974     -184859.26      1.5115078      19683               2283 
   1175500   2022.2276      229545.52     -198455.34      13755.614     -184699.72      1.5115078      19683               2283 
   1176000   2013.3765      233092.74     -198291.36      13695.407     -184595.96      1.5115078      19683               2283 
   1176500   2025.4985      239653.76     -198361.45      13777.863     -184583.59      1.5115078      19683               2283 
   1177000   2013.1502      225002.91     -198363.58      13693.868     -184669.71      1.5115078      19683               2283 
   1177500   2014.7784      224542.51     -198556.48      13704.943     -184851.54      1.5115078      19683               2283 
   1178000   1979.2541      227445.17     -198594.04      13463.299     -185130.74      1.5115078      19683               2283 
   1178500   1975.6514      225189.69     -198803.78      13438.792     -185364.99      1.5115078      19683               2283 
   1179000   1954.3905      233622.05     -198713.19      13294.172     -185419.02      1.5115078      19683               2283 
   1179500   1972.4345      224717.84     -198741.61      13416.911     -185324.7       1.5115078      19683               2283 
   1180000   1983.6494      222501.11     -198683.11      13493.197     -185189.92      1.5115078      19683               2283 
   1180500   2021.0117      232026.27     -198833.04      13747.343     -185085.7       1.5115078      19683               2283 
   1181000   2000.6162      231765.78     -198646.92      13608.609     -185038.31      1.5115078      19683               2283 
   1181500   1988.8097      220103.08     -198576.62      13528.298     -185048.32      1.5115078      19683               2283 
   1182000   2013.19        221286.71     -198789.67      13694.138     -185095.53      1.5115078      19683               2283 
   1182500   1993.9297      221198.5      -198789.16      13563.126     -185226.04      1.5115078      19683               2283 
   1183000   1972.2225      227733.39     -198896.93      13415.468     -185481.47      1.5115078      19683               2283 
   1183500   1928.5472      230998.08     -198832.73      13118.38      -185714.35      1.5115078      19683               2283 
   1184000   1980.8401      219035.55     -199259.15      13474.087     -185785.06      1.5115078      19683               2283 
   1184500   1961.2969      228939.45     -199047.19      13341.15      -185706.04      1.5115078      19683               2283 
   1185000   1962.4816      233280.02     -198808.11      13349.209     -185458.9       1.5115078      19683               2283 
   1185500   1985.5739      223159.4      -198720.12      13506.288     -185213.83      1.5115078      19683               2283 
   1186000   1977.751       226530.76     -198560.2       13453.075     -185107.12      1.5115078      19683               2283 
   1186500   1984.5869      223141.67     -198569.77      13499.574     -185070.2       1.5115078      19683               2283 
   1187000   2014.5263      230154.34     -198736.81      13703.228     -185033.58      1.5115078      19683               2283 
   1187500   1997.238       219882.06     -198588.95      13585.629     -185003.32      1.5115078      19683               2283 
   1188000   1984.0794      224488.69     -198466.4       13496.122     -184970.28      1.5115078      19683               2283 
   1188500   1962.7267      230911.93     -198276.86      13350.877     -184925.98      1.5115078      19683               2283 
   1189000   1980.6998      224185.59     -198318.98      13473.133     -184845.85      1.5115078      19683               2283 
   1189500   2026.0843      218661.31     -198535.09      13781.848     -184753.24      1.5115078      19683               2283 
   1190000   2042.8144      226754.88     -198547.7       13895.65      -184652.05      1.5115078      19683               2283 
   1190500   2002.9431      231426.29     -198258.49      13624.436     -184634.06      1.5115078      19683               2283 
   1191000   1997.6656      230046.07     -198287.89      13588.538     -184699.35      1.5115078      19683               2283 
   1191500   2004.2324      228132.48     -198511.83      13633.207     -184878.62      1.5115078      19683               2283 
   1192000   1962.8107      226841.43     -198516.32      13351.448     -185164.87      1.5115078      19683               2283 
   1192500   1969.439       231215.46     -198719.68      13396.535     -185323.14      1.5115078      19683               2283 
   1193000   1965.718       221117.68     -198716.5       13371.224     -185345.28      1.5115078      19683               2283 
   1193500   2000.353       225403.35     -198894.06      13606.818     -185287.24      1.5115078      19683               2283 
   1194000   2032.319       220894.76     -199047.43      13824.258     -185223.17      1.5115078      19683               2283 
   1194500   2003.0806      225310.49     -198738.7       13625.372     -185113.33      1.5115078      19683               2283 
   1195000   1986.2942      226265.55     -198437.96      13511.188     -184926.77      1.5115078      19683               2283 
   1195500   2053.0389      225645.31     -198540.19      13965.199     -184574.99      1.5115078      19683               2283 
   1196000   2079.5752      230008.64     -198491.22      14145.704     -184345.51      1.5115078      19683               2283 
   1196500   1995.1597      229559.24     -197896.83      13571.493     -184325.34      1.5115078      19683               2283 
   1197000   2051.3117      224786.7      -198419.63      13953.45      -184466.18      1.5115078      19683               2283 
   1197500   2007.0756      220895.99     -198386.41      13652.547     -184733.86      1.5115078      19683               2283 
   1198000   1980.3912      224943.35     -198426.43      13471.034     -184955.4       1.5115078      19683               2283 
   1198500   1976.9729      224629.3      -198482.54      13447.782     -185034.76      1.5115078      19683               2283 
   1199000   1986.6975      218442.25     -198552.17      13513.931     -185038.24      1.5115078      19683               2283 
   1199500   1962.9347      225968.49     -198374.71      13352.291     -185022.42      1.5115078      19683               2283 
   1200000   1988.8573      221840.76     -198491.71      13528.622     -184963.09      1.5115078      19683               2283 
   1200500   1999.5753      228340.43     -198516.73      13601.528     -184915.2       1.5115078      19683               2283 
   1201000   2023.0421      225738.16     -198607.59      13761.155     -184846.43      1.5115078      19683               2283 
   1201500   1972.3532      222214.02     -198163.22      13416.358     -184746.86      1.5115078      19683               2283 
   1202000   2039.902       224438.33     -198446.57      13875.839     -184570.73      1.5115078      19683               2283 
   1202500   1985.4845      227711.09     -197938.28      13505.679     -184432.6       1.5115078      19683               2283 
   1203000   2044.7505      229115.64     -198249.2       13908.819     -184340.38      1.5115078      19683               2283 
   1203500   2051.1256      232733.21     -198310.82      13952.184     -184358.63      1.5115078      19683               2283 
   1204000   2018.1667      221019.81     -198306.64      13727.991     -184578.65      1.5115078      19683               2283 
   1204500   2048.7715      220064.04     -198820.24      13936.171     -184884.07      1.5115078      19683               2283 
   1205000   1993.1998      231401.97     -198595.86      13558.161     -185037.7       1.5115078      19683               2283 
   1205500   1996.655       233256.79     -198711.74      13581.664     -185130.07      1.5115078      19683               2283 
   1206000   1961.64        223660.45     -198519.02      13343.484     -185175.54      1.5115078      19683               2283 
   1206500   1998.1868      233074.66     -198753.59      13592.083     -185161.51      1.5115078      19683               2283 
   1207000   2059.5691      219237.26     -199129.1       14009.618     -185119.48      1.5115078      19683               2283 
   1207500   1984.7206      220047.09     -198552.1       13500.483     -185051.62      1.5115078      19683               2283 
   1208000   2039.9492      236762.24     -198700.65      13876.16      -184824.49      1.5115078      19683               2283 
   1208500   2034.7765      241425.17     -198332.13      13840.974     -184491.16      1.5115078      19683               2283 
   1209000   2075.3557      229357.3      -198438.2       14117.002     -184321.2       1.5115078      19683               2283 
   1209500   2020.4167      238700.19     -198100.05      13743.296     -184356.76      1.5115078      19683               2283 
   1210000   2083.0543      224114.69     -198708.82      14169.37      -184539.45      1.5115078      19683               2283 
   1210500   2017.9781      222900.53     -198509.35      13726.708     -184782.64      1.5115078      19683               2283 
   1211000   1990.3837      221391.15     -198470.5       13539.005     -184931.5       1.5115078      19683               2283 
   1211500   1993.3015      227680.31     -198557.03      13558.852     -184998.17      1.5115078      19683               2283 
   1212000   1974.3561      226499.52     -198473.98      13429.982     -185043.99      1.5115078      19683               2283 
   1212500   1973.2577      225191.65     -198458.66      13422.51      -185036.15      1.5115078      19683               2283 
   1213000   2002.3866      220203.22     -198589.96      13620.651     -184969.31      1.5115078      19683               2283 
   1213500   1997.4496      229042.02     -198408.61      13587.069     -184821.54      1.5115078      19683               2283 
   1214000   2030.0358      222162.35     -198425.46      13808.727     -184616.73      1.5115078      19683               2283 
   1214500   1993.7348      231167.44     -197963.4       13561.8       -184401.6       1.5115078      19683               2283 
   1215000   2085.5672      230303.22     -198349.65      14186.463     -184163.19      1.5115078      19683               2283 
   1215500   2049.3495      222113.38     -197983.22      13940.103     -184043.11      1.5115078      19683               2283 
   1216000   2086.209       225676.58     -198355.26      14190.829     -184164.44      1.5115078      19683               2283 
   1216500   2036.9194      231633.86     -198361.3       13855.551     -184505.75      1.5115078      19683               2283 
   1217000   1997.1024      219405.18     -198371.02      13584.707     -184786.31      1.5115078      19683               2283 
   1217500   1976.1975      225015.05     -198377.65      13442.507     -184935.14      1.5115078      19683               2283 
   1218000   1943.555       230955.24     -198210.81      13220.466     -184990.34      1.5115078      19683               2283 
   1218500   1983.8976      244991.59     -198491.46      13494.885     -184996.58      1.5115078      19683               2283 
   1219000   2047.3684      230500.85     -198912.41      13926.627     -184985.79      1.5115078      19683               2283 
   1219500   1945.2468      220746.74     -198212.59      13231.974     -184980.61      1.5115078      19683               2283 
   1220000   1991.9695      227303.57     -198497.89      13549.792     -184948.1       1.5115078      19683               2283 
   1220500   1997.9161      233015.96     -198514.92      13590.242     -184924.68      1.5115078      19683               2283 
   1221000   2033.4443      237922.36     -198760.1       13831.912     -184928.19      1.5115078      19683               2283 
   1221500   2042.8471      224760.58     -198860.08      13895.872     -184964.21      1.5115078      19683               2283 
   1222000   1977.9463      226890.7      -198497.78      13454.403     -185043.38      1.5115078      19683               2283 
   1222500   1965.6875      226657.57     -198540.71      13371.016     -185169.69      1.5115078      19683               2283 
   1223000   1966.9525      219031.76     -198673.11      13379.621     -185293.49      1.5115078      19683               2283 
   1223500   1999.1152      231755.55     -198967.89      13598.399     -185369.49      1.5115078      19683               2283 
   1224000   1982.2695      221183.41     -198864.43      13483.811     -185380.62      1.5115078      19683               2283 
   1224500   1966.8775      237154.67     -198576.64      13379.111     -185197.53      1.5115078      19683               2283 
   1225000   1959.3587      222528.12     -198189.95      13327.966     -184861.99      1.5115078      19683               2283 
   1225500   2011.3012      233042.96     -198298.33      13681.29      -184617.04      1.5115078      19683               2283 
   1226000   2011.6188      234253.54     -198210.16      13683.451     -184526.71      1.5115078      19683               2283 
   1226500   2064.4295      225922.18     -198620.69      14042.68      -184578.01      1.5115078      19683               2283 
   1227000   1972.2259      226790.51     -198122.08      13415.492     -184706.59      1.5115078      19683               2283 
   1227500   2031.6665      224773.54     -198670.14      13819.819     -184850.32      1.5115078      19683               2283 
   1228000   1984.7362      224471.07     -198472.01      13500.59      -184971.42      1.5115078      19683               2283 
   1228500   1964.311       228787.32     -198395.44      13361.653     -185033.78      1.5115078      19683               2283 
   1229000   2007.2395      235296.71     -198675.76      13653.662     -185022.1       1.5115078      19683               2283 
   1229500   1980.1776      221363.11     -198480.6       13469.581     -185011.02      1.5115078      19683               2283 
   1230000   1992.9334      228884.75     -198551.91      13556.349     -184995.56      1.5115078      19683               2283 
   1230500   1989.9567      238119.45     -198537.17      13536.1       -185001.07      1.5115078      19683               2283 
   1231000   1988.6592      219987        -198499.76      13527.275     -184972.48      1.5115078      19683               2283 
   1231500   2019.6737      223461.77     -198664.32      13738.241     -184926.07      1.5115078      19683               2283 
   1232000   2033.1985      223788.1      -198691.57      13830.24      -184861.33      1.5115078      19683               2283 
   1232500   2070.618       227680.71     -198900.51      14084.775     -184815.73      1.5115078      19683               2283 
   1233000   2020.344       231654.22     -198496.53      13742.801     -184753.73      1.5115078      19683               2283 
   1233500   1990.4812      231251.31     -198303.86      13539.669     -184764.19      1.5115078      19683               2283 
   1234000   2029.1572      223037.4      -198657.33      13802.751     -184854.58      1.5115078      19683               2283 
   1234500   2028.339       221570.82     -198821.21      13797.185     -185024.02      1.5115078      19683               2283 
   1235000   1983.1254      224314.55     -198721.07      13489.633     -185231.43      1.5115078      19683               2283 
   1235500   1974.9043      212850.42     -198814.62      13433.711     -185380.91      1.5115078      19683               2283 
   1236000   1953.2536      229216.27     -198739.55      13286.438     -185453.11      1.5115078      19683               2283 
   1236500   1988.1126      228301.32     -198954.16      13523.557     -185430.61      1.5115078      19683               2283 
   1237000   1942.649       220596.44     -198544.71      13214.304     -185330.41      1.5115078      19683               2283 
   1237500   1983.8484      231860.4      -198511.59      13494.551     -185017.04      1.5115078      19683               2283 
   1238000   2028.0596      225578.37     -198483.66      13795.284     -184688.38      1.5115078      19683               2283 
   1238500   2059.9827      224248        -198597.7       14012.432     -184585.27      1.5115078      19683               2283 
   1239000   2002.1619      242870.53     -198261.02      13619.123     -184641.9       1.5115078      19683               2283 
   1239500   2011.8383      232348.8      -198443.25      13684.944     -184758.31      1.5115078      19683               2283 
   1240000   1988.5889      231550.45     -198418.62      13526.797     -184891.83      1.5115078      19683               2283 
   1240500   1957.3834      217289.72     -198335.2       13314.53      -185020.67      1.5115078      19683               2283 
   1241000   1982.7905      231405.36     -198589.36      13487.354     -185102         1.5115078      19683               2283 
   1241500   2046.4104      212610.12     -199078.16      13920.11      -185158.05      1.5115078      19683               2283 
   1242000   1970.2729      225882.72     -198630.73      13402.207     -185228.52      1.5115078      19683               2283 
   1242500   1984.0122      225466.07     -198826.51      13495.664     -185330.84      1.5115078      19683               2283 
   1243000   1954.1546      227680.2      -198874.34      13292.567     -185581.78      1.5115078      19683               2283 
   1243500   1947.4709      224432.38     -199150.67      13247.103     -185903.57      1.5115078      19683               2283 
   1244000   1925.3203      228065.15     -199147.04      13096.43      -186050.61      1.5115078      19683               2283 
   1244500   1931.9401      228304.32     -199092.95      13141.459     -185951.49      1.5115078      19683               2283 
   1245000   1941.5015      228788.95     -198832.16      13206.498     -185625.66      1.5115078      19683               2283 
   1245500   1933.9453      228489.64     -198567.7       13155.099     -185412.61      1.5115078      19683               2283 
   1246000   1982.5344      217985.16     -198781.28      13485.612     -185295.66      1.5115078      19683               2283 
   1246500   2029.1425      224156.37     -198985.01      13802.65      -185182.36      1.5115078      19683               2283 
   1247000   2023.4185      233445.23     -198829.7       13763.714     -185065.99      1.5115078      19683               2283 
   1247500   2027.3996      226984.5      -198737.73      13790.795     -184946.93      1.5115078      19683               2283 
   1248000   1984.0001      229497.02     -198343.37      13495.582     -184847.79      1.5115078      19683               2283 
   1248500   2058.111       232520.99     -198713.38      13999.7       -184713.68      1.5115078      19683               2283 
   1249000   1996.0469      217122.11     -198141.8       13577.528     -184564.27      1.5115078      19683               2283 
   1249500   2067.0842      217495.82     -198533.22      14060.738     -184472.48      1.5115078      19683               2283 
   1250000   2049.1184      227361.91     -198507.94      13938.531     -184569.41      1.5115078      19683               2283 
   1250500   2030.6186      219938.26     -198718.78      13812.691     -184906.09      1.5115078      19683               2283 
   1251000   1999.6812      231124.04     -198770.43      13602.248     -185168.19      1.5115078      19683               2283 
   1251500   2007.3528      223218.15     -198947.43      13654.432     -185293         1.5115078      19683               2283 
   1252000   1903.8802      229178.98     -198267.16      12950.59      -185316.57      1.5115078      19683               2283 
   1252500   1999.8721      214884.84     -198837.03      13603.547     -185233.48      1.5115078      19683               2283 
   1253000   1963.5532      228234.88     -198486.43      13356.499     -185129.93      1.5115078      19683               2283 
   1253500   1969.6642      233377.29     -198359.44      13398.067     -184961.37      1.5115078      19683               2283 
   1254000   2011.1286      223200.06     -198456.8       13680.116     -184776.68      1.5115078      19683               2283 
   1254500   2020.3625      229572.03     -198366.82      13742.927     -184623.9       1.5115078      19683               2283 
   1255000   2033.9566      237395.9      -198326.82      13835.397     -184491.42      1.5115078      19683               2283 
   1255500   2029.9146      224594.58     -198242.22      13807.902     -184434.32      1.5115078      19683               2283 
   1256000   2013.4878      243649.28     -198204.95      13696.164     -184508.79      1.5115078      19683               2283 
   1256500   2012.5907      228572.97     -198457.68      13690.062     -184767.62      1.5115078      19683               2283 
   1257000   1962.2652      237362.18     -198365.12      13347.737     -185017.38      1.5115078      19683               2283 
   1257500   1985.1434      232050.93     -198686.24      13503.359     -185182.88      1.5115078      19683               2283 
   1258000   1968.6409      234258.39     -198647.67      13391.106     -185256.56      1.5115078      19683               2283 
   1258500   2023.4967      229666.28     -199002.69      13764.246     -185238.45      1.5115078      19683               2283 
   1259000   2007.0623      217142.28     -198857.72      13652.456     -185205.27      1.5115078      19683               2283 
   1259500   1982.6476      232608.38     -198500.1       13486.383     -185013.72      1.5115078      19683               2283 
   1260000   2022.0062      232946.72     -198437.1       13754.108     -184683         1.5115078      19683               2283 
   1260500   2069.6817      236659.12     -198497.84      14078.406     -184419.44      1.5115078      19683               2283 
   1261000   2075.1328      226546.4      -198557.54      14115.486     -184442.06      1.5115078      19683               2283 
   1261500   2055.4938      224575.37     -198629.18      13981.897     -184647.28      1.5115078      19683               2283 
   1262000   2015.102       229834.88     -198514.22      13707.144     -184807.08      1.5115078      19683               2283 
   1262500   2069.537       223466.72     -198998.66      14077.422     -184921.24      1.5115078      19683               2283 
   1263000   1965.3606      224252.1      -198446.91      13368.793     -185078.12      1.5115078      19683               2283 
   1263500   2028.3561      226639.65     -198967.08      13797.301     -185169.78      1.5115078      19683               2283 
   1264000   2023.9029      233979.46     -199023.5       13767.01      -185256.49      1.5115078      19683               2283 
   1264500   1977.9886      233331.99     -198756.7       13454.691     -185302.01      1.5115078      19683               2283 
   1265000   1982.9945      227396.73     -198772.98      13488.742     -185284.23      1.5115078      19683               2283 
   1265500   2030.9997      227683.51     -199066.96      13815.284     -185251.68      1.5115078      19683               2283 
   1266000   2007.5048      229942.06     -198869.28      13655.466     -185213.81      1.5115078      19683               2283 
   1266500   2036.2268      229179.41     -199007.33      13850.839     -185156.49      1.5115078      19683               2283 
   1267000   2014.3595      219475.07     -198723.84      13702.093     -185021.75      1.5115078      19683               2283 
   1267500   2006.3807      229391.52     -198503.9       13647.82      -184856.08      1.5115078      19683               2283 
   1268000   2017.8326      233769.35     -198487.22      13725.718     -184761.51      1.5115078      19683               2283 
   1268500   2002.3337      228828.87     -198400.09      13620.291     -184779.8       1.5115078      19683               2283 
   1269000   2056.1194      234036.17     -198863.89      13986.153     -184877.74      1.5115078      19683               2283 
   1269500   2004.3199      228791.54     -198720.58      13633.802     -185086.78      1.5115078      19683               2283 
   1270000   2039.9998      224558.45     -199209.05      13876.504     -185332.54      1.5115078      19683               2283 
   1270500   1981.3829      224106.33     -198954.57      13477.78      -185476.8       1.5115078      19683               2283 
   1271000   1991.6543      221625.5      -199091.29      13547.648     -185543.64      1.5115078      19683               2283 
   1271500   1969.9352      230036.83     -198928.15      13399.91      -185528.24      1.5115078      19683               2283 
   1272000   1960.293       224659.14     -198776.96      13334.322     -185442.63      1.5115078      19683               2283 
   1272500   1988.2909      221389.04     -198806.15      13524.77      -185281.38      1.5115078      19683               2283 
   1273000   2011.8409      228464.34     -198622.57      13684.962     -184937.61      1.5115078      19683               2283 
   1273500   2054.6107      225866.52     -198511.3       13975.89      -184535.41      1.5115078      19683               2283 
   1274000   2005.5887      238221.51     -198106.42      13642.432     -184463.98      1.5115078      19683               2283 
   1274500   2071.5205      236366.28     -198599.59      14090.914     -184508.68      1.5115078      19683               2283 
   1275000   2035.5294      220090.09     -198502.24      13846.095     -184656.14      1.5115078      19683               2283 
   1275500   1982.284       225248.12     -198349.65      13483.909     -184865.74      1.5115078      19683               2283 
   1276000   1980.0916      235685.85     -198499.13      13468.996     -185030.13      1.5115078      19683               2283 
   1276500   1988.3185      224594.54     -198660.38      13524.957     -185135.43      1.5115078      19683               2283 
   1277000   1973.0811      219696.12     -198626.91      13421.309     -185205.6       1.5115078      19683               2283 
   1277500   1988.6559      223237.65     -198796.16      13527.252     -185268.91      1.5115078      19683               2283 
   1278000   1967.4246      219121.31     -198695.66      13382.832     -185312.83      1.5115078      19683               2283 
   1278500   1992.5915      223173.38     -198957.87      13554.023     -185403.84      1.5115078      19683               2283 
   1279000   1978.393       220592.39     -198996.92      13457.441     -185539.48      1.5115078      19683               2283 
   1279500   1977.0343      223732.35     -199113.26      13448.199     -185665.06      1.5115078      19683               2283 
   1280000   2006.2599      224260.4      -199383.92      13646.998     -185736.92      1.5115078      19683               2283 
   1280500   2034.6812      212959.86     -199575.89      13840.326     -185735.56      1.5115078      19683               2283 
   1281000   2013.3984      219438.82     -199333.27      13695.556     -185637.72      1.5115078      19683               2283 
   1281500   2009.7999      221673.33     -199128.03      13671.078     -185456.95      1.5115078      19683               2283 
   1282000   2012.3274      225656.4      -198862.89      13688.271     -185174.62      1.5115078      19683               2283 
   1282500   2022.8749      215209.83     -198677.03      13760.017     -184917.01      1.5115078      19683               2283 
   1283000   2073.2644      223556.11     -198909.7       14102.777     -184806.92      1.5115078      19683               2283 
   1283500   2011.2305      229885.33     -198535.04      13680.809     -184854.23      1.5115078      19683               2283 
   1284000   2025.2517      211905.17     -198737.9       13776.184     -184961.71      1.5115078      19683               2283 
   1284500   1993.6091      230587.98     -198660.28      13560.945     -185099.34      1.5115078      19683               2283 
   1285000   2005.7149      229786.82     -198815.09      13643.291     -185171.8       1.5115078      19683               2283 
   1285500   1979.9216      239255.08     -198646.79      13467.839     -185178.95      1.5115078      19683               2283 
   1286000   1980.3026      237797.52     -198606.52      13470.432     -185136.09      1.5115078      19683               2283 
   1286500   2005.2704      221780.1      -198722.3       13640.268     -185082.03      1.5115078      19683               2283 
   1287000   1988.3225      222458.32     -198586.09      13524.984     -185061.11      1.5115078      19683               2283 
   1287500   2018.4648      225751.78     -198795.33      13730.019     -185065.31      1.5115078      19683               2283 
   1288000   1991.5466      221531.71     -198603.4       13546.915     -185056.48      1.5115078      19683               2283 
   1288500   1994.3296      231014        -198558.5       13565.846     -184992.66      1.5115078      19683               2283 
   1289000   2026.5137      225952.09     -198697.22      13784.769     -184912.45      1.5115078      19683               2283 
   1289500   2049.747       230823.45     -198728.84      13942.806     -184786.03      1.5115078      19683               2283 
   1290000   2039.9942      231684.59     -198555.83      13876.466     -184679.36      1.5115078      19683               2283 
   1290500   2004.6335      220803.63     -198367.61      13635.935     -184731.68      1.5115078      19683               2283 
   1291000   1983.1211      243872.95     -198447.28      13489.603     -184957.68      1.5115078      19683               2283 
   1291500   1984.2616      217718.36     -198714         13497.361     -185216.64      1.5115078      19683               2283 
   1292000   1989.9339      232024.43     -198937.18      13535.945     -185401.24      1.5115078      19683               2283 
   1292500   2000.0014      231430.37     -199091.9       13604.427     -185487.47      1.5115078      19683               2283 
   1293000   1977.1086      226262.29     -198938.97      13448.705     -185490.27      1.5115078      19683               2283 
   1293500   1971.2723      214745.74     -198784.52      13409.005     -185375.52      1.5115078      19683               2283 
   1294000   2034.0186      228107.1      -198967.34      13835.818     -185131.52      1.5115078      19683               2283 
   1294500   2002.0989      232723.37     -198511.37      13618.694     -184892.68      1.5115078      19683               2283 
   1295000   2027.9384      239159.06     -198530.88      13794.46      -184736.42      1.5115078      19683               2283 
   1295500   2026.0491      240652.24     -198491.43      13781.609     -184709.82      1.5115078      19683               2283 
   1296000   2031.6371      229980.21     -198582.77      13819.619     -184763.15      1.5115078      19683               2283 
   1296500   2016.1404      227166.83     -198537.13      13714.208     -184822.93      1.5115078      19683               2283 
   1297000   2010.8814      230255.64     -198579.54      13678.434     -184901.11      1.5115078      19683               2283 
   1297500   2019.0033      222859.32     -198731.57      13733.681     -184997.89      1.5115078      19683               2283 
   1298000   2013.8828      222226.63     -198767.17      13698.851     -185068.32      1.5115078      19683               2283 
   1298500   2003.4987      228613.88     -198784.91      13628.216     -185156.7       1.5115078      19683               2283 
   1299000   2034.5954      226501.9      -199107.74      13839.742     -185268         1.5115078      19683               2283 
   1299500   2006.7619      224432.54     -199062.15      13650.413     -185411.74      1.5115078      19683               2283 
   1300000   1967.5497      221177.12     -198849.74      13383.683     -185466.06      1.5115078      19683               2283 
   1300500   1953.1703      223227.9      -198720.61      13285.871     -185434.74      1.5115078      19683               2283 
   1301000   2034.9421      218891.42     -199078.3       13842.1       -185236.2       1.5115078      19683               2283 
   1301500   2010.8555      230742.98     -198614.4       13678.259     -184936.14      1.5115078      19683               2283 
   1302000   2059.7994      225650.35     -198750.22      14011.185     -184739.03      1.5115078      19683               2283 
   1302500   2049.4369      230275.83     -198651.17      13940.697     -184710.47      1.5115078      19683               2283 
   1303000   2067.7591      228996.84     -198818.98      14065.329     -184753.65      1.5115078      19683               2283 
   1303500   1975.8695      236938.16     -198387.7       13440.277     -184947.42      1.5115078      19683               2283 
   1304000   1957.873       234279.17     -198554.24      13317.86      -185236.38      1.5115078      19683               2283 
   1304500   1970.4121      214370.04     -198808.14      13403.154     -185404.98      1.5115078      19683               2283 
   1305000   2006.5032      231323.89     -199075.09      13648.653     -185426.43      1.5115078      19683               2283 
   1305500   1972.5177      225642.04     -198794.96      13417.477     -185377.49      1.5115078      19683               2283 
   1306000   2003.1996      232047.86     -198921.71      13626.181     -185295.52      1.5115078      19683               2283 
   1306500   1942.6596      224881.85     -198383.52      13214.376     -185169.14      1.5115078      19683               2283 
   1307000   2013.5563      236146.82     -198671.61      13696.63      -184974.98      1.5115078      19683               2283 
   1307500   2009.9647      233941.24     -198446.76      13672.199     -184774.56      1.5115078      19683               2283 
   1308000   2053.3552      228378.41     -198597.97      13967.35      -184630.62      1.5115078      19683               2283 
   1308500   2033.9751      227227.08     -198450.19      13835.523     -184614.66      1.5115078      19683               2283 
   1309000   2024.8592      236425.37     -198497.88      13773.515     -184724.37      1.5115078      19683               2283 
   1309500   1959.1911      223250.8      -198439.59      13326.827     -185112.76      1.5115078      19683               2283 
   1310000   1969.2428      228309.08     -198861.93      13395.2       -185466.73      1.5115078      19683               2283 
   1310500   1942.9404      223881.87     -198693.12      13216.286     -185476.84      1.5115078      19683               2283 
   1311000   1993.6862      220868.45     -198920.33      13561.469     -185358.86      1.5115078      19683               2283 
   1311500   2019.6583      235435.76     -198888.9       13738.137     -185150.77      1.5115078      19683               2283 
   1312000   2041.3983      219256.28     -198809.74      13886.017     -184923.73      1.5115078      19683               2283 
   1312500   1992.7222      231930.13     -198343.34      13554.912     -184788.43      1.5115078      19683               2283 
   1313000   2007.1888      229750.91     -198379.77      13653.317     -184726.45      1.5115078      19683               2283 
   1313500   2027.1458      230797.21     -198515.17      13789.069     -184726.1       1.5115078      19683               2283 
   1314000   1988.493       225678.26     -198341.17      13526.144     -184815.02      1.5115078      19683               2283 
   1314500   2006.0635      231432.53     -198697.19      13645.662     -185051.53      1.5115078      19683               2283 
   1315000   1974.5066      231263.25     -198778.19      13431.005     -185347.18      1.5115078      19683               2283 
   1315500   1927.0948      221658.88     -198558.82      13108.501     -185450.32      1.5115078      19683               2283 
   1316000   1989.0277      220262.18     -198942.33      13529.781     -185412.55      1.5115078      19683               2283 
   1316500   1949.3445      226747.31     -198580.5       13259.848     -185320.65      1.5115078      19683               2283 
   1317000   1991.8199      223160.07     -198720.28      13548.775     -185171.51      1.5115078      19683               2283 
   1317500   2037.0724      226376.19     -198843.96      13856.591     -184987.37      1.5115078      19683               2283 
   1318000   2031.1227      231111.45     -198661.53      13816.12      -184845.41      1.5115078      19683               2283 
   1318500   2014.731       227761.01     -198448.3       13704.62      -184743.68      1.5115078      19683               2283 
   1319000   2024.7612      233005.57     -198362.28      13772.848     -184589.43      1.5115078      19683               2283 
   1319500   2070.0951      230677.14     -198484.25      14081.218     -184403.03      1.5115078      19683               2283 
   1320000   2065.5567      230531.89     -198396.01      14050.347     -184345.66      1.5115078      19683               2283 
   1320500   2063.5304      236614.34     -198486.83      14036.564     -184450.27      1.5115078      19683               2283 
   1321000   2051.0486      234372.43     -198729.89      13951.661     -184778.23      1.5115078      19683               2283 
   1321500   2007.6729      226668.09     -198727.02      13656.61      -185070.41      1.5115078      19683               2283 
   1322000   1965.0612      236274.3      -198604.3       13366.756     -185237.55      1.5115078      19683               2283 
   1322500   1980.3429      242268.8      -198784.92      13470.705     -185314.21      1.5115078      19683               2283 
   1323000   1980.472       224635.39     -198773.25      13471.584     -185301.66      1.5115078      19683               2283 
   1323500   2000.1043      231450.14     -198878         13605.126     -185272.87      1.5115078      19683               2283 
   1324000   1986.2692      227173.38     -198743.15      13511.017     -185232.13      1.5115078      19683               2283 
   1324500   1997.8524      234194.82     -198643.62      13589.808     -185053.81      1.5115078      19683               2283 
   1325000   2014.1234      230975.53     -198538.49      13700.488     -184838         1.5115078      19683               2283 
   1325500   2017.0481      232845.57     -198435.28      13720.382     -184714.9       1.5115078      19683               2283 
   1326000   2013.1337      240246.86     -198321.4       13693.755     -184627.64      1.5115078      19683               2283 
   1326500   2037.1593      235705.4      -198480.1       13857.182     -184622.92      1.5115078      19683               2283 
   1327000   1983.096       235812.87     -198318.46      13489.432     -184829.02      1.5115078      19683               2283 
   1327500   2003.0031      224445.6      -198720.9       13624.845     -185096.06      1.5115078      19683               2283 
   1328000   1951.1704      233007.39     -198569.37      13272.268     -185297.1       1.5115078      19683               2283 
   1328500   1961.1093      225261.9      -198722.22      13339.874     -185382.35      1.5115078      19683               2283 
   1329000   1948.4398      224875        -198628.51      13253.694     -185374.82      1.5115078      19683               2283 
   1329500   2018.5246      225430.5      -199048.95      13730.425     -185318.53      1.5115078      19683               2283 
   1330000   1971.9827      217199.17     -198640.36      13413.838     -185226.53      1.5115078      19683               2283 
   1330071   1968.8021      232155.89     -198592.87      13392.202     -185200.66      1.5115078      19683               2283 
Loop time of 24081.6 on 48 procs for 400000 steps with 2283 atoms

Performance: 0.144 ns/day, 167.234 hours/ns, 16.610 timesteps/s, 37.921 katom-step/s
99.5% CPU use with 12 MPI tasks x 4 OpenMP threads

MPI task timing breakdown:
Section |  min time  |  avg time  |  max time  |%varavg| %total
---------------------------------------------------------------
Pair    | 17374      | 17984      | 19139      | 461.0 | 74.68
Neigh   | 139.18     | 149.06     | 162.99     |  74.6 |  0.62
Comm    | 1706.7     | 2860.3     | 3468.1     |1154.9 | 11.88
Output  | 0.14983    | 0.1679     | 0.19315    |   2.8 |  0.00
Modify  | 3064.9     | 3079.5     | 3091.2     |  17.3 | 12.79
Other   |            | 8.723      |            |       |  0.04

Nlocal:         190.25 ave         200 max         183 min
Histogram: 2 1 1 0 4 1 2 0 0 1
Nghost:        5198.58 ave        5261 max        5162 min
Histogram: 2 2 1 2 1 2 1 0 0 1
Neighs:         143646 ave      150764 max      137680 min
Histogram: 2 0 1 1 2 3 1 1 0 1

Total # of neighbors = 1723754
Ave neighs/atom = 755.03898
Neighbor list builds = 4385
Dangerous builds = 0
System init for write_restart ...
--- Condensation Stage 4/4 ---
Setting up Verlet run ...
  Unit style    : real
  Current step  : 1330071
  Time step     : 0.1
Per MPI rank memory allocation (min/avg/max) = 368.6 | 374.5 | 380.9 Mbytes
   Step          Temp          Press          PotEng         KinEng         TotEng        Density         Volume        Atoms   
   1330071   1968.8021      232155.92     -198592.87      13392.202     -185200.66      1.5115078      19683               2283 
   1330500   2014.9174      227350.58     -198686.41      13705.888     -184980.52      1.5115078      19683               2283 
   1331000   2001.2968      230748.08     -198197.19      13613.239     -184583.95      1.5115078      19683               2283 
   1331500   2049.8465      224639.78     -198317.28      13943.483     -184373.8       1.5115078      19683               2283 
   1332000   2070.0476      237516.3      -198442         14080.895     -184361.11      1.5115078      19683               2283 
   1332500   2006.5294      235041        -198121.72      13648.831     -184472.89      1.5115078      19683               2283 
   1333000   2024.4605      232622.55     -198445.65      13770.802     -184674.85      1.5115078      19683               2283 
   1333500   2056.2268      221898.96     -198871.54      13986.884     -184884.65      1.5115078      19683               2283 
   1334000   1981.5277      239548.38     -198553.42      13478.765     -185074.65      1.5115078      19683               2283 
   1334500   2015.3481      227472.33     -198874.88      13708.818     -185166.06      1.5115078      19683               2283 
   1335000   2021.7984      231570.41     -198981.14      13752.694     -185228.45      1.5115078      19683               2283 
   1335500   2025.7219      227553.21     -199032.66      13779.383     -185253.27      1.5115078      19683               2283 
   1336000   2043.7566      227698.68     -199177.23      13902.059     -185275.17      1.5115078      19683               2283 
   1336500   1952.6048      222569.34     -198598.3       13282.025     -185316.27      1.5115078      19683               2283 
   1337000   1915.5998      226403.06     -198315.75      13030.309     -185285.44      1.5115078      19683               2283 
   1337500   2034.9592      223799.62     -198927.43      13842.217     -185085.21      1.5115078      19683               2283 
   1338000   1997.9165      233014.45     -198350.91      13590.245     -184760.66      1.5115078      19683               2283 
   1338500   2030.8939      231454.12     -198355.48      13814.564     -184540.92      1.5115078      19683               2283 
   1339000   2019.15        236175.2      -198214.34      13734.68      -184479.66      1.5115078      19683               2283 
   1339500   2015.8432      242650.04     -198248.2       13712.186     -184536.01      1.5115078      19683               2283 
   1340000   2006.2102      231028.87     -198392.99      13646.66      -184746.33      1.5115078      19683               2283 
   1340500   2044.6438      216267.18     -198934.06      13908.094     -185025.97      1.5115078      19683               2283 
   1341000   1933.6097      238546.52     -198353.2       13152.816     -185200.38      1.5115078      19683               2283 
   1341500   1978.3845      233118.46     -198679.94      13457.384     -185222.55      1.5115078      19683               2283 
   1342000   2017.4589      227078.57     -198898.56      13723.176     -185175.38      1.5115078      19683               2283 
   1342500   2014.6776      225853.25     -198769.32      13704.257     -185065.06      1.5115078      19683               2283 
   1343000   1993.2154      229575.14     -198512.51      13558.267     -184954.24      1.5115078      19683               2283 
   1343500   2028.8362      218733.63     -198634.39      13800.567     -184833.82      1.5115078      19683               2283 
   1344000   2038.0468      227337.34     -198643.92      13863.219     -184780.7       1.5115078      19683               2283 
   1344500   2028.5319      225191.21     -198613.56      13798.497     -184815.06      1.5115078      19683               2283 
   1345000   2009.3133      241320.01     -198675.83      13667.768     -185008.07      1.5115078      19683               2283 
   1345500   1989.8272      227533.71     -198804.07      13535.22      -185268.85      1.5115078      19683               2283 
   1346000   1967.4798      226093.71     -198857.88      13383.208     -185474.67      1.5115078      19683               2283 
   1346500   1980.3201      225252.09     -199003.62      13470.551     -185533.07      1.5115078      19683               2283 
   1347000   1960.6672      226857.8      -198846.3       13336.867     -185509.43      1.5115078      19683               2283 
   1347500   1993.0651      230016.51     -198918.14      13557.244     -185360.9       1.5115078      19683               2283 
   1348000   1980.4402      232669.15     -198560.46      13471.367     -185089.09      1.5115078      19683               2283 
   1348500   2042.2767      224943.66     -198697.8       13891.992     -184805.81      1.5115078      19683               2283 
   1349000   2021.9005      232855.32     -198422.03      13753.389     -184668.64      1.5115078      19683               2283 
   1349500   2043.6357      234659.37     -198547.39      13901.236     -184646.15      1.5115078      19683               2283 
   1350000   1999.5408      231034.61     -198305.08      13601.293     -184703.79      1.5115078      19683               2283 
   1350500   2079.1976      233585.04     -198981.53      14143.136     -184838.4       1.5115078      19683               2283 
   1351000   2016.9645      227344.01     -198731.24      13719.813     -185011.43      1.5115078      19683               2283 
   1351500   2007.1151      232595.62     -198785.65      13652.815     -185132.84      1.5115078      19683               2283 
   1352000   1992.7121      218490.18     -198723.3       13554.843     -185168.46      1.5115078      19683               2283 
   1352500   2022.9459      226238.94     -198946.02      13760.5       -185185.52      1.5115078      19683               2283 
   1353000   2000.3237      231351.84     -198770.42      13606.619     -185163.8       1.5115078      19683               2283 
   1353500   1990.7772      229575.56     -198651.17      13541.681     -185109.49      1.5115078      19683               2283 
   1354000   2013.3598      234619.48     -198663.07      13695.293     -184967.78      1.5115078      19683               2283 
   1354500   2057.9623      231940.6      -198628.01      13998.689     -184629.32      1.5115078      19683               2283 
   1355000   2053.5019      229094.88     -198334.28      13968.348     -184365.93      1.5115078      19683               2283 
   1355500   1991.6759      258085.74     -197829.74      13547.795     -184281.94      1.5115078      19683               2283 
   1356000   2047.0302      223449.97     -198281.08      13924.326     -184356.75      1.5115078      19683               2283 
   1356500   2030.7241      235053.9      -198432.45      13813.409     -184619.04      1.5115078      19683               2283 
   1357000   2023.8053      215154.74     -198668.52      13766.346     -184902.17      1.5115078      19683               2283 
   1357500   1968.6596      223302.85     -198446.23      13391.233     -185055         1.5115078      19683               2283 
   1358000   2016.004       227867.4      -198850.02      13713.28      -185136.74      1.5115078      19683               2283 
   1358500   1964.2398      230212.97     -198556.67      13361.169     -185195.51      1.5115078      19683               2283 
   1359000   1980.2124      221178.84     -198649.68      13469.817     -185179.86      1.5115078      19683               2283 
   1359500   2025.952       225515.75     -198911.81      13780.948     -185130.87      1.5115078      19683               2283 
   1360000   1980.8143      228101.1      -198592.37      13473.912     -185118.46      1.5115078      19683               2283 
   1360500   2004.8673      214676.38     -198716.69      13637.525     -185079.16      1.5115078      19683               2283 
   1361000   2023.7414      237900.46     -198819.74      13765.911     -185053.82      1.5115078      19683               2283 
   1361500   1990.7715      237150.13     -198605.24      13541.643     -185063.6       1.5115078      19683               2283 
   1362000   2073.0036      226412.69     -199282.69      14101.003     -185181.69      1.5115078      19683               2283 
   1362500   1991.7371      225560.69     -198901.42      13548.211     -185353.2       1.5115078      19683               2283 
   1363000   2019.0874      223131.46     -199201.74      13734.254     -185467.49      1.5115078      19683               2283 
   1363500   1984.8429      222243.91     -199049.92      13501.315     -185548.61      1.5115078      19683               2283 
   1364000   2005.1353      222007.38     -199206.19      13639.349     -185566.84      1.5115078      19683               2283 
   1364500   1991.685       224311.66     -198999.59      13547.857     -185451.74      1.5115078      19683               2283 
   1365000   2024.0317      230841.62     -198921.9       13767.886     -185154.02      1.5115078      19683               2283 
   1365500   2013.3528      231609.84     -198560.23      13695.245     -184864.99      1.5115078      19683               2283 
   1366000   2027.3686      228369.01     -198507.25      13790.584     -184716.66      1.5115078      19683               2283 
   1366500   2042.9949      225163.73     -198584.33      13896.877     -184687.45      1.5115078      19683               2283 
   1367000   2012.3863      231028.76     -198467.83      13688.671     -184779.15      1.5115078      19683               2283 
   1367500   2014.2823      223628.14     -198613.11      13701.568     -184911.54      1.5115078      19683               2283 
   1368000   1981.1804      230413.64     -198496.29      13476.402     -185019.89      1.5115078      19683               2283 
   1368500   1988.7996      232144.93     -198604.87      13528.23      -185076.64      1.5115078      19683               2283 
   1369000   1988.4221      232366.44     -198617.95      13525.662     -185092.29      1.5115078      19683               2283 
   1369500   2002.7586      230681.98     -198684.66      13623.181     -185061.47      1.5115078      19683               2283 
   1370000   2026.6022      233021.67     -198820.89      13785.371     -185035.52      1.5115078      19683               2283 
   1370500   2020.3292      226010.1      -198787.7       13742.701     -185045         1.5115078      19683               2283 
   1371000   2004.2819      229466        -198737.08      13633.543     -185103.53      1.5115078      19683               2283 
   1371500   2004.9161      236652.66     -198833.21      13637.857     -185195.36      1.5115078      19683               2283 
   1372000   1953.5629      229302.36     -198578.24      13288.542     -185289.7       1.5115078      19683               2283 
   1372500   1983.0566      226710.01     -198896.98      13489.164     -185407.82      1.5115078      19683               2283 
   1373000   1986.6778      227928.31     -199090.82      13513.797     -185577.02      1.5115078      19683               2283 
   1373500   1954.6378      230586.9      -199034.06      13295.854     -185738.21      1.5115078      19683               2283 
   1374000   1907.3273      218650.37     -198790.92      12974.038     -185816.89      1.5115078      19683               2283 
   1374500   1926.0605      225599.52     -198829.43      13101.465     -185727.97      1.5115078      19683               2283 
   1375000   2029.7916      226096.3      -199235.49      13807.066     -185428.43      1.5115078      19683               2283 
   1375500   2030.4018      226745.59     -198926.56      13811.217     -185115.34      1.5115078      19683               2283 
   1376000   2027.7037      221648.92     -198716.59      13792.863     -184923.73      1.5115078      19683               2283 
   1376500   2045.2307      225447.94     -198766.67      13912.086     -184854.58      1.5115078      19683               2283 
   1377000   2036.3839      227539.6      -198754.05      13851.908     -184902.14      1.5115078      19683               2283 
   1377500   2003.3852      233434.4      -198670.92      13627.444     -185043.47      1.5115078      19683               2283 
   1378000   2016.2763      227085.97     -198931.66      13715.132     -185216.52      1.5115078      19683               2283 
   1378500   2001.9296      220003.28     -199000.87      13617.542     -185383.32      1.5115078      19683               2283 
   1379000   1982.3535      225221.93     -199017.49      13484.382     -185533.11      1.5115078      19683               2283 
   1379500   1983.8266      219716.26     -199053.21      13494.402     -185558.81      1.5115078      19683               2283 
   1380000   2000.2511      225755.69     -199119.44      13606.125     -185513.31      1.5115078      19683               2283 
   1380500   2006.8068      223930.6      -199084.9       13650.718     -185434.18      1.5115078      19683               2283 
   1381000   1973.2458      231516.58     -198779.82      13422.429     -185357.39      1.5115078      19683               2283 
   1381500   1998.3628      226527.65     -198847.05      13593.28      -185253.77      1.5115078      19683               2283 
   1382000   2019.2825      233723.76     -198899.09      13735.581     -185163.51      1.5115078      19683               2283 
   1382500   2002.9493      214715.07     -198678.73      13624.479     -185054.25      1.5115078      19683               2283 
   1383000   2019.4841      228346.68     -198678.4       13736.952     -184941.44      1.5115078      19683               2283 
   1383500   1981.7341      226355.02     -198159.11      13480.168     -184678.94      1.5115078      19683               2283 
   1384000   2054.3372      231607.98     -198358.68      13974.03      -184384.65      1.5115078      19683               2283 
   1384500   2070.3346      224884.68     -198358.31      14082.848     -184275.46      1.5115078      19683               2283 
   1385000   2101.1167      230360.58     -198648.39      14292.234     -184356.16      1.5115078      19683               2283 
   1385500   2031.8716      235393.98     -198532.75      13821.214     -184711.54      1.5115078      19683               2283 
   1386000   2015.475       233756.99     -198706.98      13709.682     -184997.3       1.5115078      19683               2283 
   1386500   1980.2117      225252.42     -198572.65      13469.813     -185102.84      1.5115078      19683               2283 
   1387000   1958.3337      219008.31     -198513.95      13320.994     -185192.96      1.5115078      19683               2283 
   1387500   2011.7066      228251.38     -198873.34      13684.048     -185189.29      1.5115078      19683               2283 
   1388000   2027.7111      222380.28     -198961.51      13792.914     -185168.6       1.5115078      19683               2283 
   1388500   2011.8303      233017.21     -198772.15      13684.889     -185087.26      1.5115078      19683               2283 
   1389000   2031.5167      217806.78     -198791.45      13818.801     -184972.65      1.5115078      19683               2283 
   1389500   1982.0792      234988.73     -198309.78      13482.516     -184827.26      1.5115078      19683               2283 
   1390000   2047.5614      233353.97     -198576.52      13927.94      -184648.58      1.5115078      19683               2283 
   1390500   2057.9197      225351.41     -198528.21      13998.399     -184529.81      1.5115078      19683               2283 
   1391000   2053.7499      239220.69     -198499.16      13970.035     -184529.12      1.5115078      19683               2283 
   1391500   2071.9205      232672.6      -198863.59      14093.635     -184769.95      1.5115078      19683               2283 
   1392000   2035.0086      229024.51     -199014.9       13842.553     -185172.34      1.5115078      19683               2283 
   1392500   2010.9655      225547.71     -199025.95      13679.007     -185346.94      1.5115078      19683               2283 
   1393000   2011.11        227243.99     -199129.62      13679.99      -185449.63      1.5115078      19683               2283 
   1393500   1955.9539      234866.21     -198748.12      13304.806     -185443.32      1.5115078      19683               2283 
   1394000   1984.7653      220646.97     -198845.3       13500.788     -185344.51      1.5115078      19683               2283 
   1394500   2030.9317      223104.71     -199000.78      13814.821     -185185.95      1.5115078      19683               2283 
   1395000   2014.7793      231116.89     -198755.73      13704.949     -185050.78      1.5115078      19683               2283 
   1395500   2034.418       226910.66     -198758.43      13838.536     -184919.9       1.5115078      19683               2283 
   1396000   2026.177       233131.63     -198584.95      13782.479     -184802.47      1.5115078      19683               2283 
   1396500   2018.2257      231841.75     -198422.96      13728.392     -184694.57      1.5115078      19683               2283 
   1397000   2021.6088      230787.77     -198468.12      13751.405     -184716.72      1.5115078      19683               2283 
   1397500   2028.4388      232409.22     -198724.2       13797.863     -184926.33      1.5115078      19683               2283 
   1398000   2042.081       233763.45     -199127.21      13890.661     -185236.55      1.5115078      19683               2283 
   1398500   1953.909       224968.19     -198754.51      13290.896     -185463.62      1.5115078      19683               2283 
   1399000   2007.6932      225499.23     -199198.6       13656.748     -185541.85      1.5115078      19683               2283 
   1399500   1997.3726      223558.8      -199086.24      13586.545     -185499.7       1.5115078      19683               2283 
   1400000   2030.8386      231813.37     -199212.46      13814.188     -185398.27      1.5115078      19683               2283 
   1400500   2028.9297      220561.29     -199086.57      13801.203     -185285.37      1.5115078      19683               2283 
   1401000   2034.5151      215218.83     -198957.1       13839.196     -185117.91      1.5115078      19683               2283 
   1401500   2005.0805      219381        -198521.92      13638.976     -184882.94      1.5115078      19683               2283 
   1402000   2050.1142      222581.24     -198564.92      13945.304     -184619.61      1.5115078      19683               2283 
   1402500   2063.1681      221285.02     -198466.85      14034.1       -184432.75      1.5115078      19683               2283 
   1403000   2047.5638      234656.33     -198362.3       13927.956     -184434.34      1.5115078      19683               2283 
   1403500   2059.0764      232124.77     -198736.22      14006.267     -184729.95      1.5115078      19683               2283 
   1404000   2019.4308      223018.82     -198878.81      13736.59      -185142.22      1.5115078      19683               2283 
   1404500   2007.5908      226626.26     -198960.08      13656.051     -185304.02      1.5115078      19683               2283 
   1405000   1994.3288      222464.73     -198944.04      13565.841     -185378.2       1.5115078      19683               2283 
   1405500   1949.8249      225405.86     -198682.03      13263.116     -185418.91      1.5115078      19683               2283 
   1406000   1993.2099      220744.31     -198949.13      13558.229     -185390.9       1.5115078      19683               2283 
   1406500   1969.6963      226100.73     -198720.22      13398.285     -185321.94      1.5115078      19683               2283 
   1407000   1982.6241      234126.33     -198611.29      13486.222     -185125.07      1.5115078      19683               2283 
   1407500   2062.1356      231766.55     -198924.4       14027.076     -184897.32      1.5115078      19683               2283 
   1408000   2032.4316      237806.99     -198570.98      13825.023     -184745.95      1.5115078      19683               2283 
   1408500   2022.9249      242510.5      -198450.55      13760.357     -184690.2       1.5115078      19683               2283 
   1409000   2048.0034      234622.78     -198738.67      13930.946     -184807.73      1.5115078      19683               2283 
   1409500   1973.4013      228309.1      -198651.71      13423.487     -185228.23      1.5115078      19683               2283 
   1410000   1975.8099      226989.66     -198906.82      13439.871     -185466.95      1.5115078      19683               2283 
   1410500   1962.0593      229240.38     -198876         13346.336     -185529.66      1.5115078      19683               2283 
   1411000   1928.5337      227411.21     -198600.05      13118.288     -185481.76      1.5115078      19683               2283 
   1411500   2031.2104      218692.05     -199186.54      13816.717     -185369.83      1.5115078      19683               2283 
   1412000   2000.226       218932.94     -198803.83      13605.955     -185197.87      1.5115078      19683               2283 
   1412500   2014.4659      224460.15     -198684.23      13702.817     -184981.41      1.5115078      19683               2283 
   1413000   2020.1433      235708.69     -198547.65      13741.436     -184806.22      1.5115078      19683               2283 
   1413500   2048.7634      236249.09     -198583.61      13936.116     -184647.5       1.5115078      19683               2283 
   1414000   2079.8051      231538.67     -198728.82      14147.268     -184581.55      1.5115078      19683               2283 
   1414500   2072.6207      210517.09     -198761.14      14098.398     -184662.74      1.5115078      19683               2283 
   1415000   1991.3814      229498.9      -198675.35      13545.792     -185129.56      1.5115078      19683               2283 
   1415500   1952.0877      228143.99     -198762.34      13278.507     -185483.83      1.5115078      19683               2283 
   1416000   1998.4858      226575.7      -199112.49      13594.117     -185518.38      1.5115078      19683               2283 
   1416500   2011.6283      218865.46     -199164.86      13683.515     -185481.35      1.5115078      19683               2283 
   1417000   2052.3554      210278.2      -199284.91      13960.55      -185324.36      1.5115078      19683               2283 
   1417500   2002.6812      228406.2      -198734.91      13622.655     -185112.26      1.5115078      19683               2283 
   1418000   1988.7606      239602.7      -198425.22      13527.964     -184897.25      1.5115078      19683               2283 
   1418500   1991.2283      220292.6      -198302.99      13544.75      -184758.24      1.5115078      19683               2283 
   1419000   2017.5898      238601.76     -198373.06      13724.067     -184648.99      1.5115078      19683               2283 
   1419500   2038.7935      225328.36     -198466.69      13868.298     -184598.4       1.5115078      19683               2283 
   1420000   2034.4373      234697.65     -198589.83      13838.667     -184751.16      1.5115078      19683               2283 
   1420500   2018.3642      221139.33     -198846.2       13729.334     -185116.86      1.5115078      19683               2283 
   1421000   1973.0119      214317.4      -198785.49      13420.838     -185364.66      1.5115078      19683               2283 
   1421500   1987.1215      225566.69     -198911.44      13516.815     -185394.63      1.5115078      19683               2283 
   1422000   1945.0296      226835.15     -198558.91      13230.497     -185328.42      1.5115078      19683               2283 
   1422500   1998.4271      224897.54     -198817.19      13593.718     -185223.47      1.5115078      19683               2283 
   1423000   1959.4997      233326.82     -198395.67      13328.926     -185066.74      1.5115078      19683               2283 
   1423500   1973.1786      225175.92     -198270.37      13421.972     -184848.4       1.5115078      19683               2283 
   1424000   2034.4832      237526.75     -198520.58      13838.979     -184681.6       1.5115078      19683               2283 
   1424500   2049.2825      228721.54     -198565.83      13939.647     -184626.18      1.5115078      19683               2283 
   1425000   2025.2528      244024.86     -198514.16      13776.192     -184737.97      1.5115078      19683               2283 
   1425500   2016.3435      231767.87     -198821.57      13715.589     -185105.98      1.5115078      19683               2283 
   1426000   1963.356       233650.3      -198830.34      13355.157     -185475.18      1.5115078      19683               2283 
   1426500   1965.823       229295.79     -198944.41      13371.938     -185572.47      1.5115078      19683               2283 
   1427000   2002.5497      220351        -199199.65      13621.761     -185577.89      1.5115078      19683               2283 
   1427500   1973.3148      226369.06     -198938.26      13422.899     -185515.36      1.5115078      19683               2283 
   1428000   1975.9053      234010.76     -198791.18      13440.52      -185350.66      1.5115078      19683               2283 
   1428500   1992.574       231831.76     -198667.25      13553.904     -185113.34      1.5115078      19683               2283 
   1429000   2097.6496      228604.55     -199163.6       14268.65      -184894.95      1.5115078      19683               2283 
   1429500   2072.5333      236933.96     -198938.74      14097.804     -184840.93      1.5115078      19683               2283 
   1430000   2005.1442      228092.52     -198553.48      13639.409     -184914.07      1.5115078      19683               2283 
   1430500   2048.2817      228086.97     -198998.05      13932.839     -185065.21      1.5115078      19683               2283 
   1431000   1971.7081      225885.09     -198610.12      13411.97      -185198.15      1.5115078      19683               2283 
   1431500   1998.301       236911.23     -198827.85      13592.86      -185234.99      1.5115078      19683               2283 
   1432000   1987.5832      226144.28     -198740.79      13519.955     -185220.83      1.5115078      19683               2283 
   1432500   2005.2796      224555.56     -198883.42      13640.33      -185243.09      1.5115078      19683               2283 
   1433000   1980.8652      226102.48     -198690.39      13474.258     -185216.13      1.5115078      19683               2283 
   1433500   2023.5318      228419.89     -198930.8       13764.485     -185166.31      1.5115078      19683               2283 
   1434000   1994.7959      224825.86     -198691.36      13569.018     -185122.34      1.5115078      19683               2283 
   1434500   1993.6584      222994.68     -198685.56      13561.28      -185124.28      1.5115078      19683               2283 
   1435000   1999.5471      226887.07     -198663.69      13601.336     -185062.36      1.5115078      19683               2283 
   1435500   2036.6958      224277.16     -198858.93      13854.03      -185004.9       1.5115078      19683               2283 
   1436000   2044.159       237053.15     -198978.65      13904.796     -185073.86      1.5115078      19683               2283 
   1436500   2065.705       223640.66     -199292.98      14051.356     -185241.63      1.5115078      19683               2283 
   1437000   1972.7365      232788.83     -198832.26      13418.965     -185413.3       1.5115078      19683               2283 
   1437500   1980.9563      229273.61     -198956.31      13474.878     -185481.44      1.5115078      19683               2283 
   1438000   1989.367       218627.9      -199011.02      13532.089     -185478.93      1.5115078      19683               2283 
   1438500   2001.8926      231746.93     -198898.6       13617.291     -185281.31      1.5115078      19683               2283 
   1439000   2046.316       237526.19     -198861.23      13919.468     -184941.76      1.5115078      19683               2283 
   1439500   2047.2939      236479.66     -198686.63      13926.12      -184760.51      1.5115078      19683               2283 
   1440000   2061.1555      235183.22     -198752.16      14020.409     -184731.75      1.5115078      19683               2283 
   1440500   2057.35        225525.06     -198827         13994.524     -184832.47      1.5115078      19683               2283 
   1441000   2027.8813      229654.5      -198844.93      13794.071     -185050.86      1.5115078      19683               2283 
   1441500   2014.8353      225597.94     -198915.93      13705.33      -185210.6       1.5115078      19683               2283 
   1442000   1999.7922      212758.01     -198860.52      13603.003     -185257.51      1.5115078      19683               2283 
   1442500   2002.356       235600.08     -198887.36      13620.443     -185266.92      1.5115078      19683               2283 
   1443000   1986.7818      220221.22     -198772.17      13514.504     -185257.66      1.5115078      19683               2283 
   1443500   2043.3279      227343.04     -199120.27      13899.142     -185221.13      1.5115078      19683               2283 
   1444000   2011.2425      222959.05     -198910.77      13680.891     -185229.88      1.5115078      19683               2283 
   1444500   1984.9062      217813.22     -198733.52      13501.746     -185231.78      1.5115078      19683               2283 
   1445000   2006.2748      213325        -198880.43      13647.1       -185233.33      1.5115078      19683               2283 
   1445500   2017.8068      225785.84     -198935.06      13725.542     -185209.52      1.5115078      19683               2283 
   1446000   2005.6598      216468.68     -198879.66      13642.916     -185236.74      1.5115078      19683               2283 
   1446500   1997.7215      224433.55     -198867.23      13588.918     -185278.31      1.5115078      19683               2283 
   1447000   1966.1456      222687.74     -198648.33      13374.132     -185274.2       1.5115078      19683               2283 
   1447500   1981.8514      226945.59     -198763.3       13480.967     -185282.34      1.5115078      19683               2283 
   1448000   1990.3927      234113.16     -198834.54      13539.066     -185295.48      1.5115078      19683               2283 
   1448500   2010.0363      214766.31     -198947.11      13672.686     -185274.43      1.5115078      19683               2283 
   1449000   2030.5585      225503.65     -199062.46      13812.283     -185250.18      1.5115078      19683               2283 
   1449500   2000.9185      221975.4      -198806.93      13610.665     -185196.27      1.5115078      19683               2283 
   1450000   2010.934       225310.82     -198774.36      13678.793     -185095.57      1.5115078      19683               2283 
   1450500   1975.3658      225515.75     -198381.76      13436.85      -184944.91      1.5115078      19683               2283 
   1451000   2006.0705      224083.45     -198418.9       13645.71      -184773.19      1.5115078      19683               2283 
   1451500   1992.8431      226666.69     -198183.7       13555.734     -184627.96      1.5115078      19683               2283 
   1452000   2061.4688      230310.66     -198606.05      14022.541     -184583.51      1.5115078      19683               2283 
   1452500   2001.4658      227695.84     -198385.59      13614.388     -184771.2       1.5115078      19683               2283 
   1453000   2011.298       226948.62     -198778.33      13681.269     -185097.06      1.5115078      19683               2283 
   1453500   1978.3205      221230.75     -198781.9       13456.948     -185324.95      1.5115078      19683               2283 
   1454000   1998.7415      216630.34     -199014.36      13595.856     -185418.5       1.5115078      19683               2283 
   1454500   1948.7623      218409.42     -198706.11      13255.887     -185450.23      1.5115078      19683               2283 
   1455000   1949.1656      225974.04     -198656.93      13258.631     -185398.29      1.5115078      19683               2283 
   1455500   1955.816       228670.04     -198569         13303.868     -185265.13      1.5115078      19683               2283 
   1456000   1984.9873      222645.53     -198588.61      13502.297     -185086.31      1.5115078      19683               2283 
   1456500   2034.7098      224182.25     -198653.14      13840.521     -184812.62      1.5115078      19683               2283 
   1457000   2086.8255      228568.77     -198801.2       14195.022     -184606.17      1.5115078      19683               2283 
   1457500   2017.9836      234671.74     -198291.91      13726.745     -184565.16      1.5115078      19683               2283 
   1458000   1967.739       229356.03     -198042.17      13384.971     -184657.2       1.5115078      19683               2283 
   1458500   2020.6499      231385.43     -198502.57      13744.882     -184757.69      1.5115078      19683               2283 
   1459000   1993.368       225779.02     -198414.57      13559.305     -184855.26      1.5115078      19683               2283 
   1459500   2001.716       231940.8      -198543.39      13616.089     -184927.3       1.5115078      19683               2283 
   1460000   2005.1612      223684.04     -198613.37      13639.525     -184973.84      1.5115078      19683               2283 
   1460500   2027.3382      226871.84     -198832.39      13790.377     -185042.01      1.5115078      19683               2283 
   1461000   2021.5994      227538.37     -198886.36      13751.341     -185135.02      1.5115078      19683               2283 
   1461500   1965.9996      225467.49     -198706.17      13373.139     -185333.04      1.5115078      19683               2283 
   1462000   1980.6937      224914.13     -198930.57      13473.092     -185457.48      1.5115078      19683               2283 
   1462500   1981.2406      225137.34     -198958.91      13476.812     -185482.09      1.5115078      19683               2283 
   1463000   1973.0007      232887.53     -198800.47      13420.762     -185379.7       1.5115078      19683               2283 
   1463500   1987.2074      229390.19     -198561.95      13517.399     -185044.55      1.5115078      19683               2283 
   1464000   2018.8303      221842.42     -198425.09      13732.505     -184692.58      1.5115078      19683               2283 
   1464500   2028.3561      228977.27     -198370.07      13797.301     -184572.77      1.5115078      19683               2283 
   1465000   2057.5779      227962.45     -198548.37      13996.074     -184552.3       1.5115078      19683               2283 
   1465500   2025.8913      234894.61     -198412.82      13780.535     -184632.28      1.5115078      19683               2283 
   1466000   2007.2578      231274.48     -198468.41      13653.786     -184814.62      1.5115078      19683               2283 
   1466500   1987.6272      232691.11     -198529.89      13520.255     -185009.64      1.5115078      19683               2283 
   1467000   1972.4022      235689.1      -198564.58      13416.691     -185147.89      1.5115078      19683               2283 
   1467500   2003.6381      224712.9      -198819.41      13629.164     -185190.25      1.5115078      19683               2283 
   1468000   2026.1832      232973.87     -198949.8       13782.521     -185167.28      1.5115078      19683               2283 
   1468500   1969.1554      238543.58     -198542.15      13394.606     -185147.54      1.5115078      19683               2283 
   1469000   1997.3154      224836.63     -198703.18      13586.156     -185117.03      1.5115078      19683               2283 
   1469500   2026.7487      221556.59     -198851.08      13786.367     -185064.71      1.5115078      19683               2283 
   1470000   1994.7457      223189.61     -198616.96      13568.677     -185048.28      1.5115078      19683               2283 
   1470500   2008.0229      227489.19     -198701.89      13658.99      -185042.9       1.5115078      19683               2283 
   1471000   1929.8284      235456.46     -198159.75      13127.095     -185032.66      1.5115078      19683               2283 
   1471500   2041.6109      230262.94     -198799.44      13887.463     -184911.98      1.5115078      19683               2283 
   1472000   2036.5054      218319.72     -198550.38      13852.734     -184697.64      1.5115078      19683               2283 
   1472500   2074.5907      227584.34     -198595.12      14111.799     -184483.32      1.5115078      19683               2283 
   1473000   2033.8575      231755.52     -198264.1       13834.723     -184429.38      1.5115078      19683               2283 
   1473500   2085.2945      236335.23     -198770.89      14184.608     -184586.28      1.5115078      19683               2283 
   1474000   2014.5865      224455.37     -198609.21      13703.638     -184905.58      1.5115078      19683               2283 
   1474500   2007.7472      232268.39     -198830.75      13657.115     -185173.63      1.5115078      19683               2283 
   1475000   1987.5061      220885.36     -198833.92      13519.431     -185314.49      1.5115078      19683               2283 
   1475500   1953.0825      225857.23     -198601.91      13285.274     -185316.63      1.5115078      19683               2283 
   1476000   1972.4009      230057.4      -198656.74      13416.682     -185240.06      1.5115078      19683               2283 
   1476500   1969.0112      227567.36     -198540.88      13393.625     -185147.25      1.5115078      19683               2283 
   1477000   2015.1814      237329.82     -198757.94      13707.684     -185050.25      1.5115078      19683               2283 
   1477500   2029.9126      230426.87     -198672.92      13807.889     -184865.03      1.5115078      19683               2283 
   1478000   2011.5722      241870.63     -198300.55      13683.134     -184617.41      1.5115078      19683               2283 
   1478500   2044.1108      229775.88     -198342.36      13904.468     -184437.89      1.5115078      19683               2283 
   1479000   2101.287       235357.06     -198752.7       14293.392     -184459.31      1.5115078      19683               2283 
   1479500   1991.3008      220130.22     -198301.73      13545.243     -184756.49      1.5115078      19683               2283 
   1480000   1982.744       232123.14     -198600.49      13487.038     -185113.45      1.5115078      19683               2283 
   1480500   1970.9385      233402.22     -198651.2       13406.735     -185244.47      1.5115078      19683               2283 
   1481000   1965.4821      240021.07     -198663.47      13369.619     -185293.85      1.5115078      19683               2283 
   1481500   1953.0383      221602.8      -198574.89      13284.974     -185289.92      1.5115078      19683               2283 
   1482000   1998.4491      225344.81     -198762.06      13593.868     -185168.19      1.5115078      19683               2283 
