=== Starting LAMMPS Sol-Gel Run ===
pH value: 7.5
Date:     Tue Jun 23 08:37:19 PM WIB 2026
LAMMPS (29 Aug 2024)
  using 4 OpenMP thread(s) per MPI task
Reading data file ...
  orthogonal box = (0 0 0) to (37.455485 37.455485 37.455485)
  2 by 2 by 3 MPI processor grid
  reading atoms ...
  2349 atoms
  read_data CPU = 0.009 seconds
=== Phase 1: Energy Minimization ===

CITE-CITE-CITE-CITE-CITE-CITE-CITE-CITE-CITE-CITE-CITE-CITE-CITE

Your simulation uses code contributions which should be cited:
- Type Label Framework: https://doi.org/10.1021/acs.jpcb.3c08419
- pair reaxff command: doi:10.1016/j.parco.2011.08.005
- fix qeq/reaxff command: doi:10.1016/j.parco.2011.08.005
The log file lists these citations in BibTeX format.

CITE-CITE-CITE-CITE-CITE-CITE-CITE-CITE-CITE-CITE-CITE-CITE-CITE

Neighbor list info ...
  update: every = 1 steps, delay = 0 steps, check = yes
  max neighbors/atom: 2000, page size: 100000
  master list distance cutoff = 12
  ghost atom cutoff = 12
  binsize = 6, bins = 7 7 7
  2 neighbor lists, perpetual/occasional/extra = 2 0 0
  (1) pair reaxff, perpetual
      attributes: half, newton off, ghost
      pair build: half/bin/ghost/newtoff
      stencil: full/ghost/bin/3d
      bin: standard
  (2) fix qeq/reaxff, perpetual, copy from (1)
      attributes: half, newton off
      pair build: copy
      stencil: none
      bin: none
Setting up cg style minimization ...
  Unit style    : real
  Current step  : 0
Per MPI rank memory allocation (min/avg/max) = 352 | 359.7 | 365 Mbytes
   Step          Temp          Press          PotEng         KinEng         TotEng        Density         Volume        Atoms   
         0   0              156996.31     -137953.9       0             -137953.9       0.57870577     52546.8             2349 
        53   0             -2845.013      -193376.33      0             -193376.33      0.57870577     52546.8             2349 
Loop time of 1.41887 on 48 procs for 53 steps with 2349 atoms

98.0% CPU use with 12 MPI tasks x 4 OpenMP threads

Minimization stats:
  Stopping criterion = energy tolerance
  Energy initial, next-to-last, final = 
       -137953.9038276  -193372.051739775  -193376.327754305
  Force two-norm initial, final = 9291.9515 833.45217
  Force max component initial, final = 1076.4404 267.64632
  Final line search alpha, max atom move = 0.0001381034 0.036962866
  Iterations, force evaluations = 53 79

MPI task timing breakdown:
Section |  min time  |  avg time  |  max time  |%varavg| %total
---------------------------------------------------------------
Pair    | 0.92911    | 0.98641    | 1.0265     |   2.8 | 69.52
Neigh   | 0.0068736  | 0.0071412  | 0.0073123  |   0.2 |  0.50
Comm    | 0.0087736  | 0.048825   | 0.10591    |  12.7 |  3.44
Output  | 0          | 0          | 0          |   0.0 |  0.00
Modify  | 0.37322    | 0.37357    | 0.37412    |   0.0 | 26.33
Other   |            | 0.002928   |            |       |  0.21

Nlocal:         195.75 ave         216 max         174 min
Histogram: 2 0 1 2 2 0 1 1 0 3
Nghost:        2796.58 ave        2852 max        2738 min
Histogram: 2 0 3 1 0 0 2 0 1 3
Neighs:        52165.4 ave       60343 max       45198 min
Histogram: 2 0 2 1 2 1 1 2 0 1

Total # of neighbors = 625985
Ave neighs/atom = 266.49
Neighbor list builds = 1
Dangerous builds = 0
=== Phase 2: Compression to Liquid Density at 300 K ===
Setting up Verlet run ...
  Unit style    : real
  Current step  : 53
  Time step     : 0.1
Per MPI rank memory allocation (min/avg/max) = 351 | 358.6 | 363.9 Mbytes
   Step          Temp          Press          PotEng         KinEng         TotEng        Density         Volume        Atoms   
        53   300           -1018.3842     -193376.33      2099.6826     -191276.64      0.57870577     52546.8             2349 
       500   330.45444      666.64714     -193564.47      2312.8315     -191251.64      0.58967376     51569.425           2349 
      1000   384.06155      1483.0166     -193998.89      2688.0245     -191310.86      0.60227311     50490.61            2349 
      1500   440.78453      2081.6588     -194634.23      3085.0254     -191549.21      0.61523397     49426.946           2349 
      2000   487.90672      1722.138      -195364.25      3414.8309     -191949.42      0.6285694      48378.327           2349 
      2500   503.91058      884.04087     -195975.79      3526.8409     -192448.94      0.64229304     47344.646           2349 
      3000   493.07937      2029.6462     -196448.72      3451.0339     -192997.69      0.65641911     46325.794           2349 
      3500   480.55682      2330.5888     -196940.51      3363.3893     -193577.12      0.67096247     45321.665           2349 
      4000   476.0227      -43.410164     -197514.75      3331.6553     -194183.09      0.68593865     44332.152           2349 
      4500   470.37052      34.934705     -198037.21      3292.096      -194745.11      0.70136386     43357.148           2349 
      5000   451.28729      127.4946      -198472.25      3158.5336     -195313.72      0.71725506     42396.545           2349 
      5500   416.28763      1065.429      -198738.08      2913.573      -195824.51      0.73362999     41450.236           2349 
      6000   386.52656      897.36138     -198975.5       2705.277      -196270.22      0.75050719     40518.115           2349 
      6500   384.15809      154.95941     -199386.45      2688.7002     -196697.75      0.76790607     39600.073           2349 
      7000   371.01844      385.78119     -199683.41      2596.7366     -197086.68      0.78584693     38696.005           2349 
      7500   355.79706      2107.7624     -199927.68      2490.203      -197437.48      0.80435105     37805.802           2349 
      8000   339.28265      2625.2792     -200117.21      2374.6196     -197742.59      0.82344072     36929.357           2349 
      8500   329.80105      723.78264     -200316.32      2308.2584     -198008.06      0.84313926     36066.564           2349 
      9000   328.36821      333.95271     -200556.55      2298.2301     -198258.32      0.86347116     35217.315           2349 
      9500   329.8177       3575.9343     -200804.65      2308.375      -198496.28      0.88446208     34381.504           2349 
     10000   308.5182       614.78402     -200859.94      2159.301      -198700.64      0.90613893     33559.022           2349 
     10500   308.736        3251.5124     -201027.48      2160.8254     -198866.66      0.92852997     32749.763           2349 
     11000   304.92901      5368.4743     -201151.48      2134.1804     -199017.3       0.95166484     31953.62            2349 
     11500   308.26706      4786.941      -201301.12      2157.5433     -199143.57      0.9755747      31170.485           2349 
     12000   307.29901      5095.9228     -201399.93      2150.768      -199249.16      1.0002923      30400.251           2349 
     12500   309.85827      6270.2001     -201495.32      2168.6801     -199326.64      1.0258519      29642.812           2349 
     13000   308.88923      6084.4455     -201563.81      2161.8978     -199401.91      1.0522899      28898.06            2349 
     13500   301.03665      6034.313      -201575.22      2106.938      -199468.28      1.0796442      28165.887           2349 
     14000   306.42374      10694.639     -201652.41      2144.642      -199507.77      1.1079549      27446.187           2349 
     14500   301.60454      12924.566     -201640.27      2110.9127     -199529.35      1.1372641      26738.853           2349 
     15000   313.60482      13833.34      -201734         2194.902      -199539.1       1.1676162      26043.777           2349 
     15500   309.86162      16589.096     -201728.51      2168.7035     -199559.81      1.1990581      25360.853           2349 
     16000   317.63375      19036.502     -201777.77      2223.1002     -199554.67      1.2316392      24689.972           2349 
     16500   327.31226      26474.972     -201843.62      2290.8395     -199552.78      1.2654113      24031.029           2349 
     17000   327.35395      32781.65      -201810.7       2291.1313     -199519.57      1.3004297      23383.915           2349 
     17500   350.34684      41151.269     -201908.61      2452.0572     -199456.55      1.3367521      22748.524           2349 
     18000   341.16638      54073.167     -201727.65      2387.8037     -199339.84      1.3744399      22124.748           2349 
     18500   354.82218      73463.209     -201584.35      2483.3799     -199100.97      1.4135579      21512.481           2349 
     19000   369.11148      95295.769     -201306.06      2583.3898     -198722.67      1.4541745      20911.615           2349 
     19500   382.47907      126957.96     -200821.03      2676.9489     -198144.08      1.4963622      20322.043           2349 
     20000   401.28321      170948.8      -200171.04      2808.5579     -197362.48      1.5401977      19743.657           2349 
     20053   411.81114      170616.63     -200141.81      2882.2423     -197259.57      1.5449442      19683               2349 
Loop time of 599.597 on 48 procs for 20000 steps with 2349 atoms

Performance: 0.288 ns/day, 83.277 hours/ns, 33.356 timesteps/s, 78.353 katom-step/s
99.3% CPU use with 12 MPI tasks x 4 OpenMP threads

MPI task timing breakdown:
Section |  min time  |  avg time  |  max time  |%varavg| %total
---------------------------------------------------------------
Pair    | 465.3      | 485.04     | 500.73     |  42.8 | 80.89
Neigh   | 1.9557     | 1.9763     | 1.9875     |   0.7 |  0.33
Comm    | 7.9572     | 23.657     | 43.371     | 193.8 |  3.95
Output  | 0.0065755  | 0.0074459  | 0.0086582  |   0.6 |  0.00
Modify  | 88.491     | 88.579     | 88.671     |   0.7 | 14.77
Other   |            | 0.3338     |            |       |  0.06

Nlocal:         195.75 ave         205 max         187 min
Histogram: 2 1 0 2 0 4 0 0 1 2
Nghost:        5267.83 ave        5306 max        5233 min
Histogram: 2 1 1 1 1 1 3 0 0 2
Neighs:         149152 ave      155587 max      142595 min
Histogram: 1 2 0 1 1 3 1 1 0 2

Total # of neighbors = 1789825
Ave neighs/atom = 761.95189
Neighbor list builds = 125
Dangerous builds = 0
Setting up Verlet run ...
  Unit style    : real
  Current step  : 20053
  Time step     : 0.1
Per MPI rank memory allocation (min/avg/max) = 373.6 | 381.3 | 386.2 Mbytes
   Step          Temp          Press          PotEng         KinEng         TotEng        Density         Volume        Atoms   
     20053   411.81114      170803.09     -200139.08      2882.2423     -197256.83      1.5449442      19683               2349 
     20500   400.54663      151147.46     -200448.6       2803.4026     -197645.2       1.5449442      19683               2349 
     21000   371.50193      145495.67     -200614.31      2600.1204     -198014.19      1.5449442      19683               2349 
     21500   361.80265      138654.18     -200872.94      2532.2357     -198340.71      1.5449442      19683               2349 
     22000   349.54319      131860.68     -201093.19      2446.4325     -198646.76      1.5449442      19683               2349 
     22500   330.02105      125093.7      -201223.78      2309.7982     -198913.99      1.5449442      19683               2349 
     23000   316.3625       121610.88     -201351.62      2214.2028     -199137.42      1.5449442      19683               2349 
     23500   308.29293      123101.6      -201489.91      2157.7243     -199332.18      1.5449442      19683               2349 
     24000   295.83447      116328.8      -201543.84      2070.5283     -199473.31      1.5449442      19683               2349 
     24500   291.81313      118551.37     -201636.52      2042.3832     -199594.14      1.5449442      19683               2349 
     25000   290.01266      115727.33     -201704.9       2029.7818     -199675.12      1.5449442      19683               2349 
     25500   289.18656      115227.62     -201733.08      2023.9999     -199709.08      1.5449442      19683               2349 
     26000   293.43464      110398.93     -201769.78      2053.732      -199716.05      1.5449442      19683               2349 
     26500   296.85935      111319.72     -201771.55      2077.7014     -199693.85      1.5449442      19683               2349 
     27000   296.42514      112990.37     -201726.67      2074.6624     -199652.01      1.5449442      19683               2349 
     27500   303.65737      114040.43     -201707.03      2125.2803     -199581.75      1.5449442      19683               2349 
     28000   307.39561      108271.78     -201666.6       2151.4441     -199515.16      1.5449442      19683               2349 
     28500   314.16606      112727.47     -201688.15      2198.8301     -199489.32      1.5449442      19683               2349 
     29000   315.22067      112149.19     -201727.5       2206.2112     -199521.29      1.5449442      19683               2349 
     29500   314.26785      112172.23     -201786.35      2199.5424     -199586.8       1.5449442      19683               2349 
     30000   298.30285      104080.09     -201771.38      2087.8043     -199683.58      1.5449442      19683               2349 
     30053   301.72698      106668.35     -201807.83      2111.7696     -199696.06      1.5449442      19683               2349 
Loop time of 573.58 on 48 procs for 10000 steps with 2349 atoms

Performance: 0.151 ns/day, 159.328 hours/ns, 17.434 timesteps/s, 40.953 katom-step/s
99.3% CPU use with 12 MPI tasks x 4 OpenMP threads

MPI task timing breakdown:
Section |  min time  |  avg time  |  max time  |%varavg| %total
---------------------------------------------------------------
Pair    | 478.47     | 489.1      | 494.52     |  20.6 | 85.27
Neigh   | 0.504      | 0.51058    | 0.5217     |   0.7 |  0.09
Comm    | 6.0044     | 11.426     | 22.079     | 134.5 |  1.99
Output  | 0.0025287  | 0.0029474  | 0.0035243  |   0.5 |  0.00
Modify  | 72.274     | 72.304     | 72.364     |   0.3 | 12.61
Other   |            | 0.2391     |            |       |  0.04

Nlocal:         195.75 ave         209 max         186 min
Histogram: 1 1 2 2 2 1 2 0 0 1
Nghost:        5356.42 ave        5381 max        5336 min
Histogram: 1 3 1 2 0 0 0 2 2 1
Neighs:         152085 ave      162199 max      144475 min
Histogram: 1 1 2 2 2 1 2 0 0 1

Total # of neighbors = 1825015
Ave neighs/atom = 776.93274
Neighbor list builds = 14
Dangerous builds = 0
=== Phase 3: Heating 300 -> 2000 K ===
Setting up Verlet run ...
  Unit style    : real
  Current step  : 30053
  Time step     : 0.1
Per MPI rank memory allocation (min/avg/max) = 374.3 | 381.3 | 386.5 Mbytes
   Step          Temp          Press          PotEng         KinEng         TotEng        Density         Volume        Atoms   
     30053   301.72698      106668.15     -201807.83      2111.7696     -199696.06      1.5449442      19683               2349 
     30500   313.01136      106633.49     -201868.92      2190.7483     -199678.18      1.5449442      19683               2349 
     31000   304.53844      109690.85     -201775.55      2131.4469     -199644.11      1.5449442      19683               2349 
     31500   314.56313      107281.88     -201780.22      2201.6091     -199578.62      1.5449442      19683               2349 
     32000   322.39826      110007.95     -201755.16      2256.4467     -199498.71      1.5449442      19683               2349 
     32500   327.11221      109824.05     -201723.63      2289.4394     -199434.19      1.5449442      19683               2349 
     33000   328.75622      110695.68     -201656.93      2300.9457     -199355.98      1.5449442      19683               2349 
     33500   348.72136      104480.42     -201691.82      2440.6806     -199251.14      1.5449442      19683               2349 
     34000   349.65307      108172.92     -201601.29      2447.2015     -199154.09      1.5449442      19683               2349 
     34500   350.4336       106461.24     -201506.2       2452.6644     -199053.53      1.5449442      19683               2349 
     35000   361.83223      114898.3      -201482.33      2532.4428     -198949.89      1.5449442      19683               2349 
     35500   371.10766      110915.75     -201441.71      2597.361      -198844.35      1.5449442      19683               2349 
     36000   375.53365      118986.11     -201341.6       2628.3383     -198713.26      1.5449442      19683               2349 
     36500   385.3175       113563.85     -201283.35      2696.8148     -198586.54      1.5449442      19683               2349 
     37000   390.82812      119101.39     -201190.19      2735.3834     -198454.81      1.5449442      19683               2349 
     37500   418.1859       114921.73     -201263.73      2926.8589     -198336.87      1.5449442      19683               2349 
     38000   412.97922      121982.98     -201092.5       2890.4176     -198202.08      1.5449442      19683               2349 
     38500   424.26196      115025.55     -201036.3       2969.3849     -198066.91      1.5449442      19683               2349 
     39000   444.068        116116.43     -201035.19      3108.0062     -197927.19      1.5449442      19683               2349 
     39500   453.60819      117469.25     -200971.76      3174.7774     -197796.98      1.5449442      19683               2349 
     40000   461.15983      118008.47     -200908.5       3227.6309     -197680.87      1.5449442      19683               2349 
     40500   459.69355      121263.37     -200780.38      3217.3685     -197563.01      1.5449442      19683               2349 
     41000   478.8792       123292.83     -200789.06      3351.6478     -197437.42      1.5449442      19683               2349 
     41500   488.13723      128918.42     -200741.95      3416.4441     -197325.5       1.5449442      19683               2349 
     42000   496.73738      124095.46     -200678.43      3476.6361     -197201.79      1.5449442      19683               2349 
     42500   496.57849      122441.34     -200551.74      3475.5241     -197076.22      1.5449442      19683               2349 
     43000   517.1276       124208.12     -200578.65      3619.3461     -196959.31      1.5449442      19683               2349 
     43500   523.1484       125530.93     -200508.7       3661.4853     -196847.22      1.5449442      19683               2349 
     44000   537.13374      126295.22     -200516.83      3759.3679     -196757.46      1.5449442      19683               2349 
     44500   549.45879      125858.63     -200506.04      3845.6302     -196660.41      1.5449442      19683               2349 
     45000   531.07525      126282.14     -200276.55      3716.9649     -196559.58      1.5449442      19683               2349 
     45500   556.0687       125160.82     -200335.44      3891.8926     -196443.55      1.5449442      19683               2349 
     46000   564.89673      124527.18     -200282.36      3953.6794     -196328.68      1.5449442      19683               2349 
     46500   580.98296      127333.75     -200312.27      4066.266      -196246         1.5449442      19683               2349 
     47000   592.45061      127651.79     -200289.38      4146.5274     -196142.86      1.5449442      19683               2349 
     47500   591.62634      132409.07     -200177.6       4140.7585     -196036.85      1.5449442      19683               2349 
     48000   592.61395      131048.34     -200070.34      4147.6707     -195922.67      1.5449442      19683               2349 
     48500   622.43409      136343.5      -200169.39      4356.3801     -195813.01      1.5449442      19683               2349 
     49000   622.26564      136340.15     -200066.72      4355.2011     -195711.52      1.5449442      19683               2349 
     49500   654.10535      133308.73     -200228.11      4578.0454     -195650.07      1.5449442      19683               2349 
     50000   652.99425      131564.17     -200161.48      4570.2688     -195591.21      1.5449442      19683               2349 
     50500   643.80491      138060.54     -200054.5       4505.9532     -195548.55      1.5449442      19683               2349 
     51000   666.33561      135747.75     -200148.02      4663.6443     -195484.38      1.5449442      19683               2349 
     51500   661.57517      138571.72     -200036.68      4630.3262     -195406.35      1.5449442      19683               2349 
     52000   661.89449      142852.56     -199932.43      4632.5611     -195299.87      1.5449442      19683               2349 
     52500   664.02152      144015.13     -199846.43      4647.4481     -195198.98      1.5449442      19683               2349 
     53000   688.78999      138420.47     -199932.14      4820.8012     -195111.34      1.5449442      19683               2349 
     53500   696.76858      141542.39     -199904.28      4876.6429     -195027.64      1.5449442      19683               2349 
     54000   679.06284      140265.7      -199731.52      4752.7214     -194978.79      1.5449442      19683               2349 
     54500   698.66096      143156.44     -199754.47      4889.8875     -194864.58      1.5449442      19683               2349 
     55000   696.69008      145825.08     -199615.13      4876.0934     -194739.04      1.5449442      19683               2349 
     55500   709.52853      141571.81     -199595.15      4965.949      -194629.2       1.5449442      19683               2349 
     56000   731.42278      142435.49     -199642.9       5119.1856     -194523.72      1.5449442      19683               2349 
     56500   726.40679      151009.92     -199510.48      5084.079      -194426.4       1.5449442      19683               2349 
     57000   736.15401      147096.85     -199482.23      5152.2992     -194329.93      1.5449442      19683               2349 
     57500   745.69945      147059.3      -199430.64      5219.1072     -194211.53      1.5449442      19683               2349 
     58000   761.65605      150869.71     -199456.94      5330.7865     -194126.15      1.5449442      19683               2349 
     58500   789.09544      151783.87     -199566.95      5522.8332     -194044.11      1.5449442      19683               2349 
     59000   791.1965       153845.1      -199527         5537.5384     -193989.46      1.5449442      19683               2349 
     59500   813.97833      153856.88     -199613.1       5696.9871     -193916.11      1.5449442      19683               2349 
     60000   819.1736       152686.34     -199596.56      5733.3485     -193863.21      1.5449442      19683               2349 
     60500   809.62491      157637.02     -199514.24      5666.5178     -193847.72      1.5449442      19683               2349 
     61000   808.6946       152685.82     -199463.49      5660.0066     -193803.48      1.5449442      19683               2349 
     61500   838.06126      151299.76     -199519.87      5865.5422     -193654.33      1.5449442      19683               2349 
     62000   868.03582      148979.49     -199558.08      6075.3324     -193482.75      1.5449442      19683               2349 
     62500   850.25983      159436.26     -199370.49      5950.9192     -193419.57      1.5449442      19683               2349 
     63000   846.48636      159248.25     -199302.58      5924.5089     -193378.07      1.5449442      19683               2349 
     63500   864.7377       157863.94     -199394.71      6052.249      -193342.46      1.5449442      19683               2349 
     64000   863.63496      160391.24     -199355.59      6044.531      -193311.06      1.5449442      19683               2349 
     64500   853.50005      165445.85     -199225.72      5973.5974     -193252.12      1.5449442      19683               2349 
     65000   911.42225      161144.99     -199512.61      6378.9915     -193133.62      1.5449442      19683               2349 
     65500   918.97702      159133.57     -199430.36      6431.8669     -192998.49      1.5449442      19683               2349 
     66000   915.96685      170105.37     -199281.67      6410.7988     -192870.87      1.5449442      19683               2349 
     66500   961.94162      162595.16     -199519.72      6732.5736     -192787.15      1.5449442      19683               2349 
     67000   959.92427      163195.64     -199507.53      6718.4543     -192789.08      1.5449442      19683               2349 
     67500   931.22416      163642.73     -199406.06      6517.5839     -192888.48      1.5449442      19683               2349 
     68000   929.32154      160535.73     -199559.85      6504.2676     -193055.59      1.5449442      19683               2349 
     68500   926.18483      156893.97     -199620.54      6482.3139     -193138.23      1.5449442      19683               2349 
     69000   923.69101      161633.24     -199573.34      6464.8598     -193108.48      1.5449442      19683               2349 
     69500   936.15426      163424.2      -199561.76      6552.0894     -193009.67      1.5449442      19683               2349 
     70000   963.97778      159810.83     -199627.06      6746.8246     -192880.24      1.5449442      19683               2349 
     70500   983.35247      167529.33     -199627.4       6882.4269     -192744.97      1.5449442      19683               2349 
     71000   993.00061      160892.71     -199604.83      6949.9537     -192654.87      1.5449442      19683               2349 
     71500   1000.4323      155549.38     -199594.25      7001.9674     -192592.28      1.5449442      19683               2349 
     72000   996.42023      165274.43     -199513.8       6973.8874     -192539.91      1.5449442      19683               2349 
     72500   1034.6913      165974.28     -199725.24      7241.7444     -192483.5       1.5449442      19683               2349 
     73000   1052.4818      166542.93     -199759.97      7366.2588     -192393.71      1.5449442      19683               2349 
     73500   1050.5135      173554.79     -199665.78      7352.4827     -192313.3       1.5449442      19683               2349 
     74000   1074.4268      172868.58     -199782.31      7519.8508     -192262.45      1.5449442      19683               2349 
     74500   1073.8669      177303.17     -199785.75      7515.932      -192269.82      1.5449442      19683               2349 
     75000   1065.7101      167499        -199838.16      7458.8435     -192379.31      1.5449442      19683               2349 
     75500   1049.4273      176034.38     -199849.23      7344.8807     -192504.35      1.5449442      19683               2349 
     76000   1087.1513      172800.27     -200201.14      7608.9092     -192592.23      1.5449442      19683               2349 
     76500   1055.9157      168561.88     -199998.53      7390.2926     -192608.23      1.5449442      19683               2349 
     77000   1065.611       169033.88     -199973.35      7458.1497     -192515.2       1.5449442      19683               2349 
     77500   1081.4545      171285.93     -199900.41      7569.0371     -192331.37      1.5449442      19683               2349 
     78000   1096.816       174118.22     -199867.68      7676.5512     -192191.12      1.5449442      19683               2349 
     78500   1094.6495      171811.21     -199737.6       7661.3882     -192076.21      1.5449442      19683               2349 
     79000   1112.9085      176259.33     -199741.34      7789.1821     -191952.16      1.5449442      19683               2349 
     79500   1152.0745      177573.86     -199882.25      8063.3026     -191818.95      1.5449442      19683               2349 
     80000   1137.2353      178329.57     -199661         7959.4437     -191701.56      1.5449442      19683               2349 
     80500   1158.9145      180427.17     -199687.1       8111.175      -191575.93      1.5449442      19683               2349 
     81000   1154.6166      186714.24     -199557.76      8081.0947     -191476.66      1.5449442      19683               2349 
     81500   1169.484       183228.6      -199608.05      8185.1503     -191422.9       1.5449442      19683               2349 
     82000   1213.4914      184982        -199900.59      8493.1556     -191407.43      1.5449442      19683               2349 
     82500   1215.7783      183505.47     -199944.7       8509.1621     -191435.53      1.5449442      19683               2349 
     83000   1176.9381      186413.33     -199724.31      8237.3218     -191486.98      1.5449442      19683               2349 
     83500   1193.1177      181663.36     -199901.31      8350.5619     -191550.75      1.5449442      19683               2349 
     84000   1209.081       183440.65     -200045.46      8462.2877     -191583.18      1.5449442      19683               2349 
     84500   1206.9365      191189.92     -199996.15      8447.2787     -191548.87      1.5449442      19683               2349 
     85000   1241.2103      181513.96     -200132.76      8687.1586     -191445.6       1.5449442      19683               2349 
     85500   1220.1639      183788.33     -199839.76      8539.8562     -191299.9       1.5449442      19683               2349 
     86000   1245.3539      191093.82     -199859.31      8716.1599     -191143.15      1.5449442      19683               2349 
     86500   1248.9008      185204.35     -199761.31      8740.984      -191020.33      1.5449442      19683               2349 
     87000   1269.2265      194142.69     -199835.12      8883.2428     -190951.88      1.5449442      19683               2349 
     87500   1271.5622      188877.71     -199773.15      8899.5903     -190873.56      1.5449442      19683               2349 
     88000   1290.1267      192758.88     -199871.43      9029.5219     -190841.91      1.5449442      19683               2349 
     88500   1306.1875      202333.69     -199966.97      9141.9302     -190825.04      1.5449442      19683               2349 
     89000   1306.7434      202618.71     -200041.36      9145.8215     -190895.54      1.5449442      19683               2349 
     89500   1309.5811      190594.9      -200226.42      9165.6823     -191060.74      1.5449442      19683               2349 
     90000   1313.3088      186081.33     -200386.16      9191.7721     -191194.38      1.5449442      19683               2349 
     90500   1290.9147      187319        -200277.83      9035.0368     -191242.8       1.5449442      19683               2349 
     91000   1288.4644      186354.74     -200182.79      9017.8877     -191164.9       1.5449442      19683               2349 
     91500   1318.3684      193448.21     -200181.33      9227.1837     -190954.15      1.5449442      19683               2349 
     92000   1331.8747      194356.77     -200065.68      9321.7137     -190743.96      1.5449442      19683               2349 
     92500   1360.0919      193401.34     -200107.47      9519.2042     -190588.27      1.5449442      19683               2349 
     93000   1387.2027      190937.55     -200146.49      9708.9514     -190437.54      1.5449442      19683               2349 
     93500   1343.5254      206520.44     -199730.77      9403.256      -190327.51      1.5449442      19683               2349 
     94000   1362.3025      199448.59     -199705.3       9534.6762     -190170.63      1.5449442      19683               2349 
     94500   1390.382       193461.6      -199772.33      9731.2031     -190041.12      1.5449442      19683               2349 
     95000   1385.1529      198111.46     -199619.27      9694.6048     -189924.67      1.5449442      19683               2349 
     95500   1405.1989      202552.65     -199631.51      9834.9053     -189796.6       1.5449442      19683               2349 
     96000   1438.3113      210211.67     -199702.56      10066.658     -189635.9       1.5449442      19683               2349 
     96500   1416.1109      200366.78     -199448.06      9911.2779     -189536.78      1.5449442      19683               2349 
     97000   1417.8423      208444.92     -199378.04      9923.3958     -189454.64      1.5449442      19683               2349 
     97500   1447.1471      198211.18     -199510.82      10128.499     -189382.32      1.5449442      19683               2349 
     98000   1446.221       216569.95     -199429.71      10122.017     -189307.7       1.5449442      19683               2349 
     98500   1476.8755      204265.7      -199580.96      10336.566     -189244.39      1.5449442      19683               2349 
     99000   1472.8742      211711.53     -199489.16      10308.561     -189180.59      1.5449442      19683               2349 
     99500   1459.7597      206724.18     -199305.43      10216.773     -189088.66      1.5449442      19683               2349 
    100000   1445.1769      208120.21     -199077.91      10114.709     -188963.21      1.5449442      19683               2349 
    100500   1499.2553      203864.78     -199294.7       10493.201     -188801.5       1.5449442      19683               2349 
    101000   1467.0207      206625.83     -198943.62      10267.593     -188676.02      1.5449442      19683               2349 
    101500   1498.3334      218323.58     -199072.73      10486.749     -188585.98      1.5449442      19683               2349 
    102000   1504.3744      211826.22     -199029.63      10529.029     -188500.6       1.5449442      19683               2349 
    102500   1511.033       212526.65     -198915.02      10575.632     -188339.39      1.5449442      19683               2349 
    103000   1545.5357      223176.03     -198972.87      10817.115     -188155.75      1.5449442      19683               2349 
    103500   1584.5434      212959.34     -199088.58      11090.127     -187998.45      1.5449442      19683               2349 
    104000   1565.6596      206791.24     -198829.71      10957.961     -187871.75      1.5449442      19683               2349 
    104500   1550.0501      213805.77     -198590.1       10848.711     -187741.39      1.5449442      19683               2349 
    105000   1605.1709      220405.13     -198840.28      11234.498     -187605.78      1.5449442      19683               2349 
    105500   1608.5518      228047.16     -198756.75      11258.161     -187498.59      1.5449442      19683               2349 
    106000   1576.2274      218389.1      -198500.95      11031.924     -187469.03      1.5449442      19683               2349 
    106500   1571.849       223900.82     -198426.79      11001.28      -187425.51      1.5449442      19683               2349 
    107000   1605.5649      226851.33     -198507.06      11237.256     -187269.81      1.5449442      19683               2349 
    107500   1675.6448      224108.19     -198768.89      11727.741     -187041.15      1.5449442      19683               2349 
    108000   1663.4095      227324.92     -198542.01      11642.107     -186899.9       1.5449442      19683               2349 
    108500   1688.6304      228339.23     -198714.85      11818.626     -186896.22      1.5449442      19683               2349 
    109000   1638.6662      231522.22     -198452.6       11468.93      -186983.67      1.5449442      19683               2349 
    109500   1647.76        225360.23     -198654.51      11532.577     -187121.94      1.5449442      19683               2349 
    110000   1637.02        234600.67     -198704.2       11457.408     -187246.79      1.5449442      19683               2349 
    110500   1634.482       225432.98     -198812.18      11439.645     -187372.54      1.5449442      19683               2349 
    111000   1631.9694      231203.03     -198901.38      11422.059     -187479.32      1.5449442      19683               2349 
    111500   1640.5585      214128.59     -198941.92      11482.174     -187459.75      1.5449442      19683               2349 
    112000   1634.3594      234709.91     -198651.54      11438.787     -187212.76      1.5449442      19683               2349 
    112500   1713.5754      217672.62     -198862.03      11993.215     -186868.81      1.5449442      19683               2349 
    113000   1694.877       242180.05     -198566.16      11862.346     -186703.81      1.5449442      19683               2349 
    113500   1698.3673      245305.47     -198405.2       11886.774     -186518.42      1.5449442      19683               2349 
    114000   1736.9863      242703.17     -198525.52      12157.066     -186368.45      1.5449442      19683               2349 
    114500   1757.468       238488.05     -198596.54      12300.416     -186296.12      1.5449442      19683               2349 
    115000   1773.2159      242106.59     -198652.74      12410.635     -186242.11      1.5449442      19683               2349 
    115500   1753.1837      228573.19     -198468.52      12270.431     -186198.09      1.5449442      19683               2349 
    116000   1741.6197      239586.25     -198377.98      12189.495     -186188.49      1.5449442      19683               2349 
    116500   1748.8339      238906.21     -198414.4       12239.987     -186174.41      1.5449442      19683               2349 
    117000   1736.5344      248114.91     -198270.52      12153.904     -186116.62      1.5449442      19683               2349 
    117500   1782.7859      240635.93     -198514.24      12477.615     -186036.63      1.5449442      19683               2349 
    118000   1799.7702      238458.84     -198471.88      12596.487     -185875.39      1.5449442      19683               2349 
    118500   1833.2165      236456.48     -198477.52      12830.576     -185646.94      1.5449442      19683               2349 
    119000   1874.1792      231750.9      -198613.05      13117.271     -185495.77      1.5449442      19683               2349 
    119500   1835.6669      238035.93     -198327.45      12847.726     -185479.72      1.5449442      19683               2349 
    120000   1824.0204      247213.5      -198321.54      12766.213     -185555.32      1.5449442      19683               2349 
    120500   1844.531       238297.25     -198601.55      12909.766     -185691.79      1.5449442      19683               2349 
    121000   1827.9385      242353.44     -198756.07      12793.635     -185962.43      1.5449442      19683               2349 
    121500   1831.7367      242496.2      -199006.43      12820.219     -186186.21      1.5449442      19683               2349 
    122000   1817.7905      239599.09     -198938.68      12722.61      -186216.07      1.5449442      19683               2349 
    122500   1810.691       239286.36     -198769.43      12672.921     -186096.51      1.5449442      19683               2349 
    123000   1827.4527      243727.85     -198661.63      12790.235     -185871.4       1.5449442      19683               2349 
    123500   1840.0692      248183.73     -198570.07      12878.537     -185691.53      1.5449442      19683               2349 
    124000   1848.9499      246790        -198418.37      12940.693     -185477.67      1.5449442      19683               2349 
    124500   1891.5239      249930.93     -198498.23      13238.666     -185259.57      1.5449442      19683               2349 
    125000   1911.7104      246107.44     -198404.19      13379.95      -185024.24      1.5449442      19683               2349 
    125500   1944.7065      241870.63     -198462.44      13610.888     -184851.55      1.5449442      19683               2349 
    126000   2008.8242      233199.06     -198760.2       14059.644     -184700.56      1.5449442      19683               2349 
    126500   1912.1241      253840.47     -197970.23      13382.846     -184587.39      1.5449442      19683               2349 
    127000   1959.8523      249469.83     -198138.16      13716.893     -184421.27      1.5449442      19683               2349 
    127500   1957.3573      251790.85     -197995.61      13699.43      -184296.17      1.5449442      19683               2349 
    128000   1955.7351      258681.97     -197881.21      13688.076     -184193.13      1.5449442      19683               2349 
    128500   2002.4039      251221.09     -198040.89      14014.709     -184026.18      1.5449442      19683               2349 
    129000   2012.3198      258499.7      -197859.2       14084.11      -183775.09      1.5449442      19683               2349 
    129500   2048.9341      253680.89     -197857.33      14340.371     -183516.96      1.5449442      19683               2349 
    130000   2030.2599      258007.19     -197623.55      14209.671     -183413.88      1.5449442      19683               2349 
    130053   2019.1134      264199.35     -197545.21      14131.657     -183413.56      1.5449442      19683               2349 
Loop time of 5682.8 on 48 procs for 100000 steps with 2349 atoms

Performance: 0.152 ns/day, 157.856 hours/ns, 17.597 timesteps/s, 41.335 katom-step/s
99.4% CPU use with 12 MPI tasks x 4 OpenMP threads

MPI task timing breakdown:
Section |  min time  |  avg time  |  max time  |%varavg| %total
---------------------------------------------------------------
Pair    | 4663.1     | 4785.7     | 4856.8     |  80.9 | 84.21
Neigh   | 20.041     | 20.198     | 20.385     |   2.0 |  0.36
Comm    | 59.594     | 130.97     | 253.95     | 489.7 |  2.30
Output  | 0.026112   | 0.030375   | 0.036499   |   1.6 |  0.00
Modify  | 743.12     | 743.45     | 743.9      |   0.8 | 13.08
Other   |            | 2.407      |            |       |  0.04

Nlocal:         195.75 ave         205 max         182 min
Histogram: 2 0 0 1 0 1 3 3 1 1
Nghost:        5344.25 ave        5395 max        5296 min
Histogram: 3 1 1 0 1 1 1 1 0 3
Neighs:         152029 ave      159116 max      141271 min
Histogram: 2 0 0 0 1 2 2 2 2 1

Total # of neighbors = 1824344
Ave neighs/atom = 776.64708
Neighbor list builds = 548
Dangerous builds = 0
=== Phase 4: NVT Condensation at 2000 K ===
--- Condensation Stage 1/4 ---
Setting up Verlet run ...
  Unit style    : real
  Current step  : 130053
  Time step     : 0.1
Per MPI rank memory allocation (min/avg/max) = 374.1 | 381.3 | 386.8 Mbytes
   Step          Temp          Press          PotEng         KinEng         TotEng        Density         Volume        Atoms   
    130053   2019.1134      264199.31     -197545.22      14131.657     -183413.56      1.5449442      19683               2349 
    130500   2022.3465      254559.56     -197621.02      14154.286     -183466.73      1.5449442      19683               2349 
    131000   2053.9263      249704.32     -197994.15      14375.311     -183618.84      1.5449442      19683               2349 
    131500   2006.9763      261092.49     -197950.57      14046.711     -183903.86      1.5449442      19683               2349 
    132000   1971.8702      251246.92     -197898.23      13801.005     -184097.23      1.5449442      19683               2349 
    132500   1969.4267      251642.51     -197909.62      13783.903     -184125.71      1.5449442      19683               2349 
    133000   2038.7589      246737.9      -198354.52      14269.155     -184085.37      1.5449442      19683               2349 
    133500   1984.3862      260052.8      -197918.41      13888.604     -184029.81      1.5449442      19683               2349 
    134000   1993.7189      245884.32     -197881.72      13953.923     -183927.8       1.5449442      19683               2349 
    134500   2015.4256      251328.16     -197915.17      14105.847     -183809.32      1.5449442      19683               2349 
    135000   1986.9507      251646.7      -197573.94      13906.553     -183667.38      1.5449442      19683               2349 
    135500   2043.2823      254172.52     -197859.34      14300.814     -183558.52      1.5449442      19683               2349 
    136000   2031.5462      259294.39     -197769.66      14218.674     -183550.99      1.5449442      19683               2349 
    136500   1991.1728      252975.61     -197699.56      13936.103     -183763.45      1.5449442      19683               2349 
    137000   1984.4636      257602.86     -197997.48      13889.146     -184108.34      1.5449442      19683               2349 
    137500   2007.5837      252489.7      -198376.06      14050.962     -184325.1       1.5449442      19683               2349 
    138000   1960.6314      264944.55     -198149.18      13722.346     -184426.83      1.5449442      19683               2349 
    138500   2017.0435      257466.25     -198513.76      14117.17      -184396.59      1.5449442      19683               2349 
    139000   2000.9053      262339.23     -198305.23      14004.22      -184301.01      1.5449442      19683               2349 
    139500   1986.1086      265719.36     -198039.63      13900.659     -184138.97      1.5449442      19683               2349 
    140000   1993.2383      264596.5      -197875.15      13950.56      -183924.59      1.5449442      19683               2349 
    140500   2076.9146      263995.76     -198252.84      14536.205     -183716.64      1.5449442      19683               2349 
    141000   2050.9646      257338.78     -197986.19      14354.583     -183631.61      1.5449442      19683               2349 
    141500   2013.3988      269459.32     -197810.72      14091.661     -183719.06      1.5449442      19683               2349 
    142000   2018.803       254745.15     -198232.82      14129.485     -184103.33      1.5449442      19683               2349 
    142500   1982.4854      249236.85     -198306.35      13875.3       -184431.05      1.5449442      19683               2349 
    143000   2038.3476      259054.93     -198847.53      14266.277     -184581.25      1.5449442      19683               2349 
    143500   1962.926       257356.4      -198409.96      13738.405     -184671.55      1.5449442      19683               2349 
    144000   2004.9048      257801.67     -198732.93      14032.213     -184700.72      1.5449442      19683               2349 
    144500   2020.6206      254640.81     -198817.68      14142.206     -184675.47      1.5449442      19683               2349 
    145000   1980.8956      257799.47     -198507.68      13864.174     -184643.51      1.5449442      19683               2349 
    145500   2000.6812      252360.38     -198589.12      14002.652     -184586.47      1.5449442      19683               2349 
    146000   2018.5485      260237.33     -198627.5       14127.704     -184499.8       1.5449442      19683               2349 
    146500   2013.3146      250049.72     -198458.47      14091.072     -184367.4       1.5449442      19683               2349 
    147000   1981.0557      272486.01     -198105.98      13865.294     -184240.69      1.5449442      19683               2349 
    147500   1989.1357      254347.21     -198059.33      13921.845     -184137.48      1.5449442      19683               2349 
    148000   1993.3306      262603.52     -197998.47      13951.205     -184047.26      1.5449442      19683               2349 
    148500   2030.3316      262735.89     -198217.17      14210.173     -184006.99      1.5449442      19683               2349 
    149000   2030.6271      257119.81     -198329.48      14212.241     -184117.24      1.5449442      19683               2349 
    149500   2067.4433      250806.63     -198904.93      14469.916     -184435.01      1.5449442      19683               2349 
    150000   1982.3822      254649.03     -198619.81      13874.578     -184745.23      1.5449442      19683               2349 
    150500   1987.2387      255616.47     -198813.76      13908.568     -184905.19      1.5449442      19683               2349 
    151000   1948.5707      260618.6      -198561.15      13637.933     -184923.22      1.5449442      19683               2349 
    151500   1985.9687      248943        -198721.47      13899.679     -184821.79      1.5449442      19683               2349 
    152000   1965.3028      259311.21     -198404.54      13755.04      -184649.5       1.5449442      19683               2349 
    152500   2002.1018      259996.59     -198442.63      14012.595     -184430.03      1.5449442      19683               2349 
    153000   1991.7113      260316.22     -198226.78      13939.872     -184286.91      1.5449442      19683               2349 
    153500   2027.5045      247680.94     -198455.68      14190.386     -184265.29      1.5449442      19683               2349 
    154000   2040.1898      245179.3      -198662.03      14279.17      -184382.86      1.5449442      19683               2349 
    154500   2019.5292      247485.35     -198909.82      14134.568     -184775.25      1.5449442      19683               2349 
    155000   1983.6117      252786.8      -199020.29      13883.183     -185137.1       1.5449442      19683               2349 
    155500   1944.7961      256368.77     -198850.54      13611.515     -185239.03      1.5449442      19683               2349 
    156000   2010.5977      249778.34     -199278.42      14072.057     -185206.36      1.5449442      19683               2349 
    156500   2012.3702      260698.4      -199218.4       14084.462     -185133.93      1.5449442      19683               2349 
    157000   2019.1887      248510.89     -199156.43      14132.185     -185024.25      1.5449442      19683               2349 
    157500   1989.1076      256174.54     -198848.43      13921.649     -184926.78      1.5449442      19683               2349 
    158000   2001.6922      256777.23     -198775.4       14009.728     -184765.68      1.5449442      19683               2349 
    158500   2060.6379      258508.04     -199081.3       14422.285     -184659.02      1.5449442      19683               2349 
    159000   2046.5881      254754.99     -199008.63      14323.951     -184684.68      1.5449442      19683               2349 
    159500   1985.9594      266956.28     -198854.64      13899.615     -184955.02      1.5449442      19683               2349 
    160000   1951.8353      257865.49     -198926.74      13660.782     -185265.96      1.5449442      19683               2349 
    160500   1985.2428      252107.19     -199306.31      13894.599     -185411.71      1.5449442      19683               2349 
    161000   1967.1187      252500.58     -199237.35      13767.75      -185469.6       1.5449442      19683               2349 
    161500   1937.6539      258949.81     -198979.46      13561.527     -185417.93      1.5449442      19683               2349 
    162000   2004.8991      247502.18     -199293.13      14032.172     -185260.96      1.5449442      19683               2349 
    162500   1982.5569      252453.75     -198952.41      13875.801     -185076.61      1.5449442      19683               2349 
    163000   2048.5047      258499.9      -199201.78      14337.366     -184864.41      1.5449442      19683               2349 
    163500   2048.4524      254757.42     -199082.1       14337         -184745.1       1.5449442      19683               2349 
    164000   2022.379       258558.62     -198933.79      14154.513     -184779.28      1.5449442      19683               2349 
    164500   2039.1861      245836.15     -199175.89      14272.145     -184903.74      1.5449442      19683               2349 
    165000   2073.3986      258939.29     -199857.76      14511.597     -185346.16      1.5449442      19683               2349 
    165500   1941.4241      253801.28     -199355.68      13587.914     -185767.76      1.5449442      19683               2349 
    166000   1970.5139      251510.38     -199581.51      13791.512     -185789.99      1.5449442      19683               2349 
    166500   1967.4079      263771.98     -199451.11      13769.773     -185681.34      1.5449442      19683               2349 
    167000   1953.9355      263184.41     -199182.6       13675.481     -185507.12      1.5449442      19683               2349 
    167500   1991.5252      264425.77     -199193.41      13938.569     -185254.84      1.5449442      19683               2349 
    168000   2072.7188      249431.17     -199553.85      14506.838     -185047.01      1.5449442      19683               2349 
    168500   2001.1361      268773.26     -198909.33      14005.836     -184903.49      1.5449442      19683               2349 
    169000   1996.5775      259740.82     -198798.79      13973.93      -184824.86      1.5449442      19683               2349 
    169500   2043.5519      259866.83     -199105.56      14302.702     -184802.86      1.5449442      19683               2349 
    170000   2040.9881      260945        -199188.8       14284.757     -184904.04      1.5449442      19683               2349 
    170500   2008.8344      257772.48     -199282.17      14059.715     -185222.46      1.5449442      19683               2349 
    171000   1944.4017      262711.24     -199073.43      13608.755     -185464.67      1.5449442      19683               2349 
    171500   1987.1381      263855.56     -199393.69      13907.865     -185485.83      1.5449442      19683               2349 
    172000   2015.0524      246725.19     -199541.83      14103.235     -185438.6       1.5449442      19683               2349 
    172500   2016.0872      262176.55     -199506.4       14110.477     -185395.93      1.5449442      19683               2349 
    173000   2016.0811      253169.7      -199479.72      14110.435     -185369.28      1.5449442      19683               2349 
    173500   2020.8764      258137.85     -199447.43      14143.997     -185303.43      1.5449442      19683               2349 
    174000   2000.748       253387.42     -199173.17      14003.119     -185170.05      1.5449442      19683               2349 
    174500   2080.134       258599.41     -199350.2       14558.738     -184791.46      1.5449442      19683               2349 
    175000   2085.8966      258952.85     -199094.55      14599.069     -184495.48      1.5449442      19683               2349 
    175500   2062.5959      255391.92     -198879.1       14435.989     -184443.11      1.5449442      19683               2349 
    176000   2038.3018      253747.18     -198874.39      14265.956     -184608.44      1.5449442      19683               2349 
    176500   2020.41        262605.89     -199072.5       14140.733     -184931.77      1.5449442      19683               2349 
    177000   2048.8256      253490.77     -199448.94      14339.611     -185109.33      1.5449442      19683               2349 
    177500   2043.0183      251893.01     -199552.13      14298.967     -185253.17      1.5449442      19683               2349 
    178000   1977.0711      248797.96     -199254.05      13837.406     -185416.65      1.5449442      19683               2349 
    178500   1987.8708      261748.35     -199429.01      13912.992     -185516.01      1.5449442      19683               2349 
    179000   1965.7077      251823.32     -199332.02      13757.874     -185574.15      1.5449442      19683               2349 
    179500   1995.1229      259299.58     -199557.85      13963.75      -185594.1       1.5449442      19683               2349 
    180000   1936.1411      247880.68     -199141.36      13550.939     -185590.42      1.5449442      19683               2349 
    180500   2017.1252      255267.11     -199579.55      14117.742     -185461.81      1.5449442      19683               2349 
    181000   2021.2008      257106.9      -199404.13      14146.267     -185257.86      1.5449442      19683               2349 
    181500   2014.9529      262455.81     -199082.84      14102.538     -184980.3       1.5449442      19683               2349 
    182000   2060.2328      257347.65     -199198.75      14419.45      -184779.3       1.5449442      19683               2349 
    182500   2057.2737      253377.85     -199215.56      14398.739     -184816.82      1.5449442      19683               2349 
    183000   2063.3941      263547.81     -199465.95      14441.575     -185024.37      1.5449442      19683               2349 
    183500   2042.4967      272885.59     -199568.38      14295.316     -185273.06      1.5449442      19683               2349 
    184000   2005.8577      255568.93     -199457.85      14038.882     -185418.97      1.5449442      19683               2349 
    184500   1991.7066      265762.29     -199405.95      13939.839     -185466.11      1.5449442      19683               2349 
    185000   1946.6189      268356.71     -199062.51      13624.273     -185438.24      1.5449442      19683               2349 
    185500   2023.2228      262125.28     -199502.45      14160.419     -185342.03      1.5449442      19683               2349 
    186000   2021.0438      260685.56     -199404.89      14145.169     -185259.72      1.5449442      19683               2349 
    186500   2038.1093      254465.47     -199468.91      14264.609     -185204.3       1.5449442      19683               2349 
    187000   2037.5735      260553.56     -199451.32      14260.859     -185190.47      1.5449442      19683               2349 
    187500   1964.8451      254038.93     -199031.59      13751.837     -185279.76      1.5449442      19683               2349 
    188000   1983.3507      259495.53     -199291.64      13881.356     -185410.29      1.5449442      19683               2349 
    188500   2010.7267      251492.99     -199642.43      14072.96      -185569.47      1.5449442      19683               2349 
    189000   1970.277       247301.12     -199496.91      13789.854     -185707.06      1.5449442      19683               2349 
    189500   2012.5472      242853.7      -199835.24      14085.701     -185749.54      1.5449442      19683               2349 
    190000   1943.0611      258378.64     -199315.39      13599.372     -185716.02      1.5449442      19683               2349 
    190500   2016.4148      256687.51     -199700.78      14112.771     -185588.01      1.5449442      19683               2349 
    191000   2035.3642      259595.19     -199533.43      14245.396     -185288.04      1.5449442      19683               2349 
    191500   2043.3108      267842.62     -199305.8       14301.014     -185004.78      1.5449442      19683               2349 
    192000   2092.5007      254223.3      -199556.26      14645.291     -184910.97      1.5449442      19683               2349 
    192500   2055.0261      247882.24     -199370.89      14383.008     -184987.88      1.5449442      19683               2349 
    193000   2069.5458      251741.76     -199672.84      14484.631     -185188.2       1.5449442      19683               2349 
    193500   1995.791       256069.61     -199317.01      13968.425     -185348.58      1.5449442      19683               2349 
    194000   1992.0865      267258.25     -199407.33      13942.498     -185464.83      1.5449442      19683               2349 
    194500   2005.3517      264298.97     -199596.82      14035.34      -185561.48      1.5449442      19683               2349 
    195000   2036.7674      252325        -199914.21      14255.217     -185658.99      1.5449442      19683               2349 
    195500   1973.81        244876.31     -199526.12      13814.582     -185711.54      1.5449442      19683               2349 
    196000   2022.8556      253783.08     -199924.88      14157.849     -185767.04      1.5449442      19683               2349 
    196500   1982.3175      256800.09     -199686.18      13874.125     -185812.06      1.5449442      19683               2349 
    197000   2008.218       258684.43     -199868.63      14055.401     -185813.23      1.5449442      19683               2349 
    197500   2011.9283      267388.67     -199877.03      14081.37      -185795.67      1.5449442      19683               2349 
    198000   2022.459       248860.72     -199887.77      14155.073     -185732.7       1.5449442      19683               2349 
    198500   2002.2675      261663.95     -199643.4       14013.754     -185629.64      1.5449442      19683               2349 
    199000   2008.1198      264046.6      -199588.96      14054.714     -185534.25      1.5449442      19683               2349 
    199500   2011.1914      255477.22     -199540.03      14076.212     -185463.81      1.5449442      19683               2349 
    200000   2007.7168      253808.24     -199526.88      14051.894     -185474.99      1.5449442      19683               2349 
    200500   1995.231       254013.4      -199525.97      13964.506     -185561.47      1.5449442      19683               2349 
    201000   1996.3445      257939.74     -199691.91      13972.299     -185719.61      1.5449442      19683               2349 
    201500   1966.0475      255306.52     -199711.74      13760.253     -185951.49      1.5449442      19683               2349 
    202000   1972.1786      255914.15     -199887.57      13803.164     -186084.41      1.5449442      19683               2349 
    202500   1945.8409      265368.25     -199721.53      13618.827     -186102.7       1.5449442      19683               2349 
    203000   2002.6549      251852.25     -199925.54      14016.465     -185909.07      1.5449442      19683               2349 
    203500   2039.9059      243096.31     -199760.44      14277.183     -185483.26      1.5449442      19683               2349 
    204000   2044.927       258314.39     -199537.31      14312.325     -185224.99      1.5449442      19683               2349 
    204500   2013.9174      254330.53     -199277.17      14095.291     -185181.88      1.5449442      19683               2349 
    205000   2040.4725      252617.13     -199513.11      14281.148     -185231.96      1.5449442      19683               2349 
    205500   2036.2269      261604.2      -199608.41      14251.434     -185356.98      1.5449442      19683               2349 
    206000   1965.6559      261565.35     -199300.7       13757.511     -185543.19      1.5449442      19683               2349 
    206500   1969.1342      254473.34     -199504.9       13781.856     -185723.05      1.5449442      19683               2349 
    207000   1942.6752      264780.7      -199430.91      13596.671     -185834.24      1.5449442      19683               2349 
    207500   2011.9874      261262.79     -199932.88      14081.783     -185851.1       1.5449442      19683               2349 
    208000   2021.745       250395.78     -199941.12      14150.076     -185791.05      1.5449442      19683               2349 
    208500   2018.8982      258879.3      -199771.22      14130.151     -185641.07      1.5449442      19683               2349 
    209000   2026.7966      263525.47     -199635.32      14185.432     -185449.89      1.5449442      19683               2349 
    209500   2039.7939      252557.99     -199363.71      14276.399     -185087.31      1.5449442      19683               2349 
    210000   2038.4375      275111.44     -199089.66      14266.906     -184822.75      1.5449442      19683               2349 
    210500   2059.5797      255496.5      -199228.48      14414.879     -184813.6       1.5449442      19683               2349 
    211000   2057.3924      261862.89     -199432.67      14399.57      -185033.1       1.5449442      19683               2349 
    211500   2017.8443      263284.1      -199482.94      14122.775     -185360.17      1.5449442      19683               2349 
    212000   1999.5263      259002.74     -199559.62      13994.569     -185565.06      1.5449442      19683               2349 
    212500   2014.2342      250444.96     -199797.71      14097.509     -185700.21      1.5449442      19683               2349 
    213000   2010.8116      255938.4      -199946.77      14073.554     -185873.22      1.5449442      19683               2349 
    213500   1991.6159      253494.26     -199926.39      13939.204     -185987.18      1.5449442      19683               2349 
    214000   1986.3387      269125.43     -199978.39      13902.269     -186076.12      1.5449442      19683               2349 
    214500   1987.0474      251229.33     -200067.25      13907.229     -186160.02      1.5449442      19683               2349 
    215000   1992.7911      242461.67     -200180.29      13947.429     -186232.86      1.5449442      19683               2349 
    215500   1940.0869      252428.92     -199851.02      13578.556     -186272.46      1.5449442      19683               2349 
    216000   1993.962       256923.85     -200186.25      13955.624     -186230.62      1.5449442      19683               2349 
    216500   2004.3938      257629.26     -200140.8       14028.636     -186112.16      1.5449442      19683               2349 
    217000   2021.1108      260122.8      -199988.17      14145.637     -185842.53      1.5449442      19683               2349 
    217500   2045.502       252828.73     -199917.35      14316.35      -185601         1.5449442      19683               2349 
    218000   2004.6407      264231.78     -199470.49      14030.364     -185440.12      1.5449442      19683               2349 
    218500   2014.616       262534.23     -199464.04      14100.181     -185363.86      1.5449442      19683               2349 
    219000   2010.9574      259116.19     -199446.07      14074.574     -185371.5       1.5449442      19683               2349 
    219500   2041.0028      274052.95     -199770.62      14284.86      -185485.76      1.5449442      19683               2349 
    220000   2009.5811      249149.02     -199767.39      14064.941     -185702.45      1.5449442      19683               2349 
    220500   1997.1303      253362.33     -200021.64      13977.799     -186043.84      1.5449442      19683               2349 
    221000   1995.6596      252740.22     -200180.02      13967.506     -186212.52      1.5449442      19683               2349 
    221500   1971.8163      257303.18     -200005.52      13800.628     -186204.89      1.5449442      19683               2349 
    222000   1994.4371      249213.33     -200076.3       13958.949     -186117.35      1.5449442      19683               2349 
    222500   2018.0998      240379.01     -200122.44      14124.564     -185997.88      1.5449442      19683               2349 
    223000   2018.1285      256003.93     -199969.1       14124.765     -185844.33      1.5449442      19683               2349 
    223500   2023.7505      261258.61     -199910.71      14164.112     -185746.59      1.5449442      19683               2349 
    224000   1990.329       250939.72     -199628.67      13930.197     -185698.47      1.5449442      19683               2349 
    224500   2005.0151      253393.22     -199718.19      14032.985     -185685.21      1.5449442      19683               2349 
    225000   2006.7616      266646.62     -199741.3       14045.208     -185696.09      1.5449442      19683               2349 
    225500   2019.6761      251438.87     -199842.33      14135.596     -185706.74      1.5449442      19683               2349 
    226000   1944.859       247542.22     -199302.22      13611.955     -185690.26      1.5449442      19683               2349 
    226500   1978.7532      260901.35     -199521.56      13849.179     -185672.38      1.5449442      19683               2349 
    227000   2042.273       254853.89     -199977.45      14293.75      -185683.7       1.5449442      19683               2349 
    227500   2054.418       262677.79     -200091.71      14378.752     -185712.96      1.5449442      19683               2349 
    228000   2055.8763      248127.25     -200194.91      14388.959     -185805.95      1.5449442      19683               2349 
    228500   1952.2003      251347        -199770.88      13663.337     -186107.54      1.5449442      19683               2349 
    229000   1940.2027      250266.96     -200114.7       13579.366     -186535.34      1.5449442      19683               2349 
    229500   1950.033       240754.25     -200249.98      13648.168     -186601.81      1.5449442      19683               2349 
    230000   1975.4008      244154.51     -200319.49      13825.716     -186493.77      1.5449442      19683               2349 
    230500   1992.897       239046.07     -200245.91      13948.17      -186297.74      1.5449442      19683               2349 
    231000   1989.0931      245865.98     -200024.69      13921.547     -186103.15      1.5449442      19683               2349 
    231500   1962.0722      256886.69     -199673.19      13732.429     -185940.76      1.5449442      19683               2349 
    232000   1980.0948      267136.36     -199645.18      13858.569     -185786.61      1.5449442      19683               2349 
    232500   2037.2809      255012.94     -199961.18      14258.811     -185702.36      1.5449442      19683               2349 
    233000   2051.7298      251338.79     -200044.67      14359.938     -185684.73      1.5449442      19683               2349 
    233500   2037.6146      257818.37     -200038.57      14261.146     -185777.42      1.5449442      19683               2349 
    234000   1997.3461      252544.5      -200079.81      13979.309     -186100.5       1.5449442      19683               2349 
    234500   1956.3429      258101.5      -200158.23      13692.33      -186465.9       1.5449442      19683               2349 
    235000   2009.3766      247576.99     -200619.58      14063.51      -186556.07      1.5449442      19683               2349 
    235500   2014.2361      248270.66     -200627.78      14097.521     -186530.26      1.5449442      19683               2349 
    236000   1975.9325      262599.11     -200282.58      13829.437     -186453.15      1.5449442      19683               2349 
    236500   1967.8287      254053.45     -200083.04      13772.719     -186310.32      1.5449442      19683               2349 
    237000   2025.7839      262750.15     -200268.56      14178.344     -186090.22      1.5449442      19683               2349 
    237500   2034.7461      256627.41     -200155.5       14241.07      -185914.43      1.5449442      19683               2349 
    238000   2058.6087      254896.89     -200185.61      14408.083     -185777.53      1.5449442      19683               2349 
    238500   2027.49        253759.09     -199887.41      14190.285     -185697.12      1.5449442      19683               2349 
    239000   2000.7738      250856.37     -199756.79      14003.3       -185753.49      1.5449442      19683               2349 
    239500   1964.0304      254148.01     -199831.27      13746.135     -186085.14      1.5449442      19683               2349 
    240000   1986.2747      256106.7      -200362.98      13901.821     -186461.16      1.5449442      19683               2349 
    240500   1927.5574      252715.53     -200049.13      13490.862     -186558.27      1.5449442      19683               2349 
    241000   1951.5006      241345.25     -200163.24      13658.439     -186504.8       1.5449442      19683               2349 
    241500   2000.223       249260.4      -200305.86      13999.445     -186306.42      1.5449442      19683               2349 
    242000   1969.0133      263496.18     -199846.92      13781.01      -186065.91      1.5449442      19683               2349 
    242500   1987.876       262249.87     -199760.31      13913.029     -185847.28      1.5449442      19683               2349 
    243000   2003.055       259819.42     -199712.08      14019.266     -185692.81      1.5449442      19683               2349 
    243500   2025.9016      271892.75     -199808.16      14179.168     -185628.99      1.5449442      19683               2349 
    244000   2016.4617      264874.28     -199745.82      14113.099     -185632.72      1.5449442      19683               2349 
    244500   2022.2504      257804.32     -199874.38      14153.613     -185720.77      1.5449442      19683               2349 
    245000   2006.454       248432.2      -199899.55      14043.055     -185856.49      1.5449442      19683               2349 
    245500   2013.6492      255352.94     -200098.77      14093.414     -186005.35      1.5449442      19683               2349 
    246000   2025.6158      250840.14     -200236.25      14177.168     -186059.08      1.5449442      19683               2349 
    246500   1950.4118      262494.37     -199728.83      13650.819     -186078.01      1.5449442      19683               2349 
    247000   2050.8172      262310.53     -200424.64      14353.55      -186071.09      1.5449442      19683               2349 
    247500   1973.8223      266983.81     -199863.44      13814.667     -186048.77      1.5449442      19683               2349 
    248000   2000.5238      272791.84     -200010.93      14001.55      -186009.38      1.5449442      19683               2349 
    248500   1991.6582      264806.48     -199922.41      13939.5       -185982.91      1.5449442      19683               2349 
    249000   1985.4914      260634.07     -199898.3       13896.339     -186001.96      1.5449442      19683               2349 
    249500   2005.2651      261559.52     -200107.02      14034.734     -186072.28      1.5449442      19683               2349 
    250000   1993.7599      254705.79     -200128.72      13954.21      -186174.52      1.5449442      19683               2349 
    250500   1956.3881      252520.47     -200030.29      13692.647     -186337.64      1.5449442      19683               2349 
    251000   1986.3482      255905.36     -200451.34      13902.336     -186549         1.5449442      19683               2349 
    251500   1945.1442      254291.73     -200281.14      13613.952     -186667.19      1.5449442      19683               2349 
    252000   2003.8314      256674.19     -200694.37      14024.7       -186669.67      1.5449442      19683               2349 
    252500   1977.9489      258364.48     -200390.84      13843.549     -186547.29      1.5449442      19683               2349 
    253000   2007.9396      259020.79     -200277.7       14053.453     -186224.24      1.5449442      19683               2349 
    253500   2025.0812      257134.95     -200125.76      14173.426     -185952.33      1.5449442      19683               2349 
    254000   2067.5572      268074.34     -200319.33      14470.713     -185848.62      1.5449442      19683               2349 
    254500   2009.8274      253949.86     -199944.03      14066.665     -185877.37      1.5449442      19683               2349 
    255000   2015.6606      252223.66     -200074.56      14107.492     -185967.07      1.5449442      19683               2349 
    255500   2013.8534      248569.23     -200182.32      14094.843     -186087.48      1.5449442      19683               2349 
    256000   2036.8385      244184.11     -200384.14      14255.714     -186128.43      1.5449442      19683               2349 
    256500   2008.1173      251422.98     -200246.84      14054.697     -186192.15      1.5449442      19683               2349 
    257000   2003.0037      249072.34     -200264.56      14018.907     -186245.66      1.5449442      19683               2349 
    257500   2008.9181      251033.1      -200326.21      14060.301     -186265.91      1.5449442      19683               2349 
    258000   2027.2513      257277.87     -200415.79      14188.614     -186227.18      1.5449442      19683               2349 
    258500   2024.2172      260742.38     -200350.51      14167.379     -186183.13      1.5449442      19683               2349 
    259000   1969.8476      267276.84     -199942.7       13786.849     -186155.85      1.5449442      19683               2349 
    259500   1975.7321      254693.4      -199965.05      13828.034     -186137.02      1.5449442      19683               2349 
    260000   1969.4793      250766.09     -199926.84      13784.271     -186142.56      1.5449442      19683               2349 
    260500   2004.3727      254765.81     -200255.87      14028.488     -186227.38      1.5449442      19683               2349 
    261000   1990.4319      255752.48     -200557.03      13930.918     -186626.11      1.5449442      19683               2349 
    261500   1963.8199      253642.88     -200663.1       13744.662     -186918.44      1.5449442      19683               2349 
    262000   1917.0789      249780.91     -200401.64      13417.524     -186984.12      1.5449442      19683               2349 
    262500   2006.2743      254461.3      -200876         14041.797     -186834.21      1.5449442      19683               2349 
    263000   1949.1169      264007.94     -200188.47      13641.756     -186546.72      1.5449442      19683               2349 
    263500   2007.6575      252817.2      -200325.18      14051.478     -186273.7       1.5449442      19683               2349 
    264000   2030.1738      256036.4      -200295.97      14209.069     -186086.9       1.5449442      19683               2349 
    264500   2028.0557      255885.7      -200167.21      14194.244     -185972.97      1.5449442      19683               2349 
    265000   2022.5756      258881.47     -200100.79      14155.889     -185944.9       1.5449442      19683               2349 
    265500   2048.9622      259581.42     -200387.48      14340.568     -186046.92      1.5449442      19683               2349 
    266000   1957.1368      260820.99     -199984.4       13697.887     -186286.52      1.5449442      19683               2349 
    266500   1987.4428      257528.87     -200470.13      13909.997     -186560.13      1.5449442      19683               2349 
    267000   1994.8597      250986.01     -200652.13      13961.907     -186690.22      1.5449442      19683               2349 
    267500   1943.9768      255578.08     -200340.36      13605.781     -186734.58      1.5449442      19683               2349 
    268000   1982.8597      245486.28     -200551.3       13877.92      -186673.38      1.5449442      19683               2349 
    268500   2006.5238      250566.19     -200642.2       14043.544     -186598.66      1.5449442      19683               2349 
    269000   2019.2526      245662.05     -200634.28      14132.632     -186501.65      1.5449442      19683               2349 
    269500   1978.0342      255914.32     -200229.75      13844.147     -186385.6       1.5449442      19683               2349 
    270000   2010.0345      242957.7      -200400.28      14068.115     -186332.17      1.5449442      19683               2349 
    270500   2001.8653      245149.9      -200328.57      14010.939     -186317.63      1.5449442      19683               2349 
    271000   2012.423       265033.7      -200391.93      14084.832     -186307.1       1.5449442      19683               2349 
    271500   2058.3406      251349.82     -200700.14      14406.206     -186293.94      1.5449442      19683               2349 
    272000   2031.2352      256968.65     -200532.48      14216.498     -186315.99      1.5449442      19683               2349 
    272500   1962.7908      263342.45     -200077.49      13737.459     -186340.03      1.5449442      19683               2349 
    273000   2008.7978      256377.97     -200450.93      14059.459     -186391.47      1.5449442      19683               2349 
    273500   1994.2323      263497.33     -200418.09      13957.516     -186460.57      1.5449442      19683               2349 
    274000   1990.8018      255871.97     -200461.5       13933.506     -186527.99      1.5449442      19683               2349 
    274500   1980.8982      256390.88     -200461.23      13864.191     -186597.04      1.5449442      19683               2349 
    275000   1967.3742      254320.02     -200411.54      13769.538     -186642         1.5449442      19683               2349 
    275500   1990.8571      253885.05     -200475.53      13933.894     -186541.63      1.5449442      19683               2349 
    276000   2027.0227      253060.35     -200475.21      14187.014     -186288.2       1.5449442      19683               2349 
    276500   2047.4636      263388.4      -200383.44      14330.079     -186053.36      1.5449442      19683               2349 
    277000   2028.5598      252725.65     -200145.02      14197.773     -185947.25      1.5449442      19683               2349 
    277500   2010.0661      263138.47     -199990.92      14068.336     -185922.59      1.5449442      19683               2349 
    278000   2054.6047      261427.51     -200360.54      14380.059     -185980.48      1.5449442      19683               2349 
    278500   2051.9234      249319.02     -200672.89      14361.293     -186311.6       1.5449442      19683               2349 
    279000   2007.2647      252597.49     -200741.05      14048.729     -186692.32      1.5449442      19683               2349 
    279500   1979.6648      253848.38     -200648.66      13855.559     -186793.1       1.5449442      19683               2349 
    280000   1975.2009      248631.95     -200590.55      13824.317     -186766.23      1.5449442      19683               2349 
    280500   2023.39        263752.12     -200815.01      14161.589     -186653.43      1.5449442      19683               2349 
    281000   1994.615       262479.98     -200441.32      13960.195     -186481.13      1.5449442      19683               2349 
    281500   2025.6015      258987.19     -200476.47      14177.067     -186299.4       1.5449442      19683               2349 
    282000   2070.3834      262096.45     -200627.43      14490.493     -186136.93      1.5449442      19683               2349 
    282500   2043.5837      256292.29     -200370.51      14302.924     -186067.59      1.5449442      19683               2349 
    283000   2038.5958      251540.16     -200387.74      14268.014     -186119.73      1.5449442      19683               2349 
    283500   1979.4533      268756.56     -200273.7       13854.079     -186419.62      1.5449442      19683               2349 
    284000   1927.957       255976.65     -200280.93      13493.659     -186787.27      1.5449442      19683               2349 
    284500   1964.9761      265317.13     -200658.77      13752.754     -186906.01      1.5449442      19683               2349 
    285000   1991.4244      260019.59     -200762.34      13937.864     -186824.48      1.5449442      19683               2349 
    285500   1988.2876      262892.61     -200577.9       13915.91      -186661.99      1.5449442      19683               2349 
    286000   1976.7933      266307.26     -200292.82      13835.462     -186457.36      1.5449442      19683               2349 
    286500   2002.4434      261715.26     -200278.9       14014.985     -186263.92      1.5449442      19683               2349 
    287000   2058.7793      255928.14     -200540.86      14409.277     -186131.58      1.5449442      19683               2349 
    287500   1973.7442      258389.93     -199906.95      13814.121     -186092.83      1.5449442      19683               2349 
    288000   2031.7732      252022.63     -200337.14      14220.262     -186116.87      1.5449442      19683               2349 
    288500   1973.5542      265035.3      -200125.11      13812.791     -186312.32      1.5449442      19683               2349 
    289000   1987.5191      255033.38     -200680.41      13910.531     -186769.88      1.5449442      19683               2349 
    289500   1938.4825      260899.03     -200557.02      13567.327     -186989.69      1.5449442      19683               2349 
    290000   1953.0456      258513.47     -200651.1       13669.253     -186981.85      1.5449442      19683               2349 
    290500   1961.4372      261381.46     -200604.14      13727.985     -186876.15      1.5449442      19683               2349 
    291000   2025.9265      241900.54     -200886.18      14179.342     -186706.83      1.5449442      19683               2349 
    291500   1965.2072      266920.56     -200204.41      13754.371     -186450.04      1.5449442      19683               2349 
    292000   2038.0016      261507.13     -200491.84      14263.855     -186227.99      1.5449442      19683               2349 
    292500   2022.9883      248032.12     -200277.01      14158.778     -186118.23      1.5449442      19683               2349 
    293000   2020.0881      260217.91     -200265.43      14138.479     -186126.95      1.5449442      19683               2349 
    293500   2036.101       253174.35     -200431.2       14250.553     -186180.65      1.5449442      19683               2349 
    294000   2072.3145      251051.05     -200794.29      14504.009     -186290.28      1.5449442      19683               2349 
    294500   1979.3603      254514.35     -200302.43      13853.428     -186449         1.5449442      19683               2349 
    295000   2026.1336      256799.2      -200747.93      14180.792     -186567.14      1.5449442      19683               2349 
    295500   1934.6965      252740.64     -200160.23      13540.829     -186619.41      1.5449442      19683               2349 
    296000   1953.1155      255387.1      -200262.64      13669.742     -186592.89      1.5449442      19683               2349 
    296500   1961.6165      263150.52     -200256.04      13729.24      -186526.8       1.5449442      19683               2349 
    297000   1999.3577      257991.47     -200411.87      13993.388     -186418.48      1.5449442      19683               2349 
    297500   1975.9894      256087.78     -200110.19      13829.836     -186280.35      1.5449442      19683               2349 
    298000   2045.8559      248534.58     -200434.36      14318.827     -186115.53      1.5449442      19683               2349 
    298500   1999.4249      251331.61     -199985.52      13993.859     -185991.67      1.5449442      19683               2349 
    299000   2031.6984      265037.8      -200166.76      14219.739     -185947.02      1.5449442      19683               2349 
    299500   2003.9275      264922.19     -200116.54      14025.372     -186091.17      1.5449442      19683               2349 
    300000   2016.9345      258810.75     -200596.05      14116.408     -186479.64      1.5449442      19683               2349 
    300500   2026.0678      243949.69     -200924.97      14180.331     -186744.64      1.5449442      19683               2349 
    301000   1982.4281      264680.26     -200676.39      13874.899     -186801.49      1.5449442      19683               2349 
    301500   1967.4747      250661.2      -200546.33      13770.241     -186776.09      1.5449442      19683               2349 
    302000   2010.9191      262864.02     -200768.23      14074.306     -186693.92      1.5449442      19683               2349 
    302500   1974.3098      252580.89     -200312.05      13818.079     -186493.97      1.5449442      19683               2349 
    303000   2020.9827      267582.94     -200370.21      14144.741     -186225.47      1.5449442      19683               2349 
    303500   2088.3806      259930.33     -200653.69      14616.455     -186037.23      1.5449442      19683               2349 
    304000   2015.5668      260042.82     -200124.39      14106.835     -186017.55      1.5449442      19683               2349 
    304500   2010.9691      255857.08     -200169.35      14074.656     -186094.7       1.5449442      19683               2349 
    305000   1997.8876      265333.21     -200167.65      13983.1       -186184.55      1.5449442      19683               2349 
    305500   1969.8754      263638.66     -200029.95      13787.044     -186242.9       1.5449442      19683               2349 
    306000   2038.0949      251039.73     -200566.16      14264.508     -186301.66      1.5449442      19683               2349 
    306500   2010.5042      258184.84     -200437.08      14071.402     -186365.67      1.5449442      19683               2349 
    307000   2006.2289      250327.1      -200432.36      14041.48      -186390.88      1.5449442      19683               2349 
    307500   1982.7495      262885.5      -200293.41      13877.149     -186416.26      1.5449442      19683               2349 
    308000   1985.9758      264086.47     -200288.56      13899.73      -186388.83      1.5449442      19683               2349 
    308500   1977.8147      265783.52     -200178.33      13842.61      -186335.72      1.5449442      19683               2349 
    309000   2034.9685      252226.85     -200451.56      14242.627     -186208.94      1.5449442      19683               2349 
    309500   2008.3631      274486.43     -199989.93      14056.417     -185933.51      1.5449442      19683               2349 
    310000   2064.7673      264317.77     -200131.65      14451.187     -185680.47      1.5449442      19683               2349 
    310500   2054.9152      260376.83     -200017.66      14382.233     -185635.43      1.5449442      19683               2349 
    311000   2030.2755      261530.32     -199972.74      14209.78      -185762.96      1.5449442      19683               2349 
    311500   2008.4263      263588.51     -200132.23      14056.859     -186075.37      1.5449442      19683               2349 
    312000   1986.6389      254903.71     -200232.36      13904.371     -186327.99      1.5449442      19683               2349 
    312500   2019.0833      253057.13     -200589.95      14131.447     -186458.5       1.5449442      19683               2349 
    313000   2011.7325      254854        -200660.73      14079.999     -186580.74      1.5449442      19683               2349 
    313500   1959.2997      253424.95     -200363.54      13713.025     -186650.51      1.5449442      19683               2349 
    314000   1981.2629      248937.46     -200521.65      13866.744     -186654.9       1.5449442      19683               2349 
    314500   1974.3121      260914.01     -200384.67      13818.096     -186566.57      1.5449442      19683               2349 
    315000   2016.8713      266630.34     -200573.43      14115.965     -186457.47      1.5449442      19683               2349 
    315500   2018.2351      252728.22     -200336.02      14125.51      -186210.51      1.5449442      19683               2349 
    316000   2046.5674      253847.94     -200240.95      14323.807     -185917.15      1.5449442      19683               2349 
    316500   2030.9665      271451.26     -199981.34      14214.617     -185766.73      1.5449442      19683               2349 
    317000   2020.6157      258610.82     -199965.29      14142.172     -185823.11      1.5449442      19683               2349 
    317500   2039.2648      257670.68     -200257.88      14272.696     -185985.19      1.5449442      19683               2349 
    318000   2013.4164      256945.3      -200405.88      14091.785     -186314.09      1.5449442      19683               2349 
    318500   1997.9383      257665.22     -200532.98      13983.454     -186549.52      1.5449442      19683               2349 
    319000   1984.3893      257603.81     -200478.54      13888.626     -186589.92      1.5449442      19683               2349 
    319500   2011.1842      249487.1      -200616.38      14076.162     -186540.22      1.5449442      19683               2349 
    320000   1990.4712      258739.53     -200419.66      13931.192     -186488.46      1.5449442      19683               2349 
    320500   2012.5339      248158.89     -200566.12      14085.608     -186480.51      1.5449442      19683               2349 
    321000   1957.9593      256927.7      -200161.97      13703.643     -186458.33      1.5449442      19683               2349 
    321500   1991.2389      258066.41     -200393.14      13936.565     -186456.57      1.5449442      19683               2349 
    322000   1956.7749      270581.49     -200123.58      13695.354     -186428.23      1.5449442      19683               2349 
    322500   2035.5425      253246.34     -200633.78      14246.644     -186387.13      1.5449442      19683               2349 
    323000   1984.1573      258505.14     -200260.54      13887.002     -186373.54      1.5449442      19683               2349 
    323500   1990.2546      262167.43     -200289.88      13929.677     -186360.2       1.5449442      19683               2349 
    324000   2015.5864      253644.59     -200480.79      14106.972     -186373.82      1.5449442      19683               2349 
    324500   1975.4206      260478.02     -200266.84      13825.854     -186440.98      1.5449442      19683               2349 
    325000   2000.3461      261879.64     -200458.17      14000.306     -186457.86      1.5449442      19683               2349 
    325500   1949.727       262450.69     -200117.92      13646.026     -186471.9       1.5449442      19683               2349 
    326000   2014.1003      250866.81     -200462.74      14096.571     -186366.17      1.5449442      19683               2349 
    326500   1974.5228      251167.86     -200098.31      13819.57      -186278.74      1.5449442      19683               2349 
    327000   1999.2046      259048.19     -200210.67      13992.317     -186218.35      1.5449442      19683               2349 
    327500   2016.3612      261210.33     -200284.34      14112.395     -186171.94      1.5449442      19683               2349 
    328000   2019.1565      251640.91     -200343.1       14131.959     -186211.14      1.5449442      19683               2349 
    328500   1976.6568      252043.35     -200235.35      13834.507     -186400.84      1.5449442      19683               2349 
    329000   2007.1914      260720.47     -200693.36      14048.216     -186645.15      1.5449442      19683               2349 
    329500   1957.4335      265151.67     -200511.48      13699.964     -186811.52      1.5449442      19683               2349 
    330000   1949.0211      250549.94     -200491.85      13641.086     -186850.77      1.5449442      19683               2349 
    330500   1958.5506      269480.67     -200473.74      13707.782     -186765.96      1.5449442      19683               2349 
    331000   1971.4846      257099.68     -200341.37      13798.306     -186543.07      1.5449442      19683               2349 
    331500   2001.7538      257654.99     -200188.21      14010.159     -186178.05      1.5449442      19683               2349 
    332000   2035.6135      252178.92     -200210.86      14247.141     -185963.72      1.5449442      19683               2349 
    332500   2049.6151      249187.67     -200310.61      14345.137     -185965.47      1.5449442      19683               2349 
    333000   2014.1018      255079.57     -200145.13      14096.581     -186048.55      1.5449442      19683               2349 
    333500   2004.7801      259407.32     -200223.52      14031.34      -186192.18      1.5449442      19683               2349 
    334000   1994.8167      259086.22     -200337.98      13961.607     -186376.38      1.5449442      19683               2349 
    334500   2044.3496      255688.88     -200817.56      14308.284     -186509.27      1.5449442      19683               2349 
    335000   2007.289       264326.17     -200658.92      14048.899     -186610.02      1.5449442      19683               2349 
    335500   2019.0236      250569.62     -200795.59      14131.029     -186664.56      1.5449442      19683               2349 
    336000   1972.9754      266499.68     -200525.28      13808.74      -186716.54      1.5449442      19683               2349 
    336500   1980.307       252396.4      -200479.38      13860.054     -186619.32      1.5449442      19683               2349 
    337000   2005.9338      262584.22     -200357.27      14039.414     -186317.86      1.5449442      19683               2349 
    337500   2044.9772      266166.38     -200280.33      14312.677     -185967.65      1.5449442      19683               2349 
    338000   2043.7803      265735.03     -200132.91      14304.3       -185828.61      1.5449442      19683               2349 
    338500   2040.1293      254967.06     -200133.43      14278.747     -185854.68      1.5449442      19683               2349 
    339000   2002.3178      270396.52     -200037.87      14014.106     -186023.76      1.5449442      19683               2349 
    339500   2029.7242      254988.6      -200449.33      14205.922     -186243.41      1.5449442      19683               2349 
    340000   2019.6588      246830.23     -200580.8       14135.475     -186445.32      1.5449442      19683               2349 
    340500   2007.2329      252200.78     -200579.29      14048.506     -186530.79      1.5449442      19683               2349 
    341000   1964.7046      256658.1      -200289.98      13750.854     -186539.13      1.5449442      19683               2349 
    341500   1969.0878      254104.76     -200297.11      13781.531     -186515.58      1.5449442      19683               2349 
    342000   1999.3172      261312.04     -200472.88      13993.105     -186479.78      1.5449442      19683               2349 
    342500   2019.121       258065.71     -200592.16      14131.711     -186460.45      1.5449442      19683               2349 
    343000   1992.5646      256242.19     -200356.34      13945.844     -186410.5       1.5449442      19683               2349 
    343500   2045.3832      270020.67     -200614.66      14315.518     -186299.14      1.5449442      19683               2349 
    344000   2034.8571      263870.05     -200356.95      14241.847     -186115.1       1.5449442      19683               2349 
    344500   2003.3886      267248.78     -199915.08      14021.601     -185893.48      1.5449442      19683               2349 
    345000   2052.2782      262817.63     -200110.47      14363.776     -185746.7       1.5449442      19683               2349 
    345500   2078.5293      259559.13     -200314.42      14547.506     -185766.92      1.5449442      19683               2349 
    346000   2026.6375      260904.48     -200194.1       14184.318     -186009.78      1.5449442      19683               2349 
    346500   2048.5855      257858.22     -200579.7       14337.931     -186241.77      1.5449442      19683               2349 
    347000   1935.3117      253771.1      -199991.17      13545.135     -186446.04      1.5449442      19683               2349 
    347500   1998.1787      256232.65     -200506.57      13985.137     -186521.43      1.5449442      19683               2349 
    348000   1985.2237      257482.36     -200446.85      13894.466     -186552.39      1.5449442      19683               2349 
    348500   1984.8895      257552.18     -200450.77      13892.126     -186558.64      1.5449442      19683               2349 
    349000   1959.1997      253974.15     -200281.06      13712.325     -186568.73      1.5449442      19683               2349 
    349500   1974.3177      253204.7      -200364.32      13818.135     -186546.19      1.5449442      19683               2349 
    350000   1986.8351      252730.4      -200469.69      13905.744     -186563.94      1.5449442      19683               2349 
    350500   1990.3777      265150.39     -200568.55      13930.538     -186638.01      1.5449442      19683               2349 
    351000   1956.131       252144.81     -200455.83      13690.848     -186764.98      1.5449442      19683               2349 
    351500   1970.0639      255925.45     -200608.74      13788.363     -186820.38      1.5449442      19683               2349 
    352000   1971.7353      254321.69     -200599.12      13800.061     -186799.06      1.5449442      19683               2349 
    352500   2034.3451      250118.24     -200963.19      14238.263     -186724.92      1.5449442      19683               2349 
    353000   1999.3706      259445.25     -200653.85      13993.479     -186660.37      1.5449442      19683               2349 
    353500   2026.3436      263820.46     -200716.72      14182.261     -186534.46      1.5449442      19683               2349 
    354000   2031.6027      258746.33     -200631.67      14219.07      -186412.6       1.5449442      19683               2349 
    354500   2026.8757      256763.97     -200431.43      14185.986     -186245.44      1.5449442      19683               2349 
    355000   2031.0201      257719.08     -200377.54      14214.992     -186162.55      1.5449442      19683               2349 
    355500   2037.7102      259609.72     -200469.25      14261.816     -186207.44      1.5449442      19683               2349 
    356000   2021.5644      260444.97     -200608.5       14148.812     -186459.69      1.5449442      19683               2349 
    356500   2001.812       249336.4      -200790.74      14010.566     -186780.17      1.5449442      19683               2349 
    357000   2003.2896      249157.67     -200967.45      14020.908     -186946.55      1.5449442      19683               2349 
    357500   1981.8544      254875.09     -200858.18      13870.884     -186987.3       1.5449442      19683               2349 
    358000   1972.1956      265848.06     -200745.5       13803.282     -186942.21      1.5449442      19683               2349 
    358500   1980.9146      254269.26     -200681.51      13864.306     -186817.2       1.5449442      19683               2349 
    359000   2009.0073      259835.77     -200729.34      14060.926     -186668.42      1.5449442      19683               2349 
    359500   2023.3636      261497        -200646.96      14161.404     -186485.55      1.5449442      19683               2349 
    360000   1996.4851      251361.69     -200252.63      13973.283     -186279.35      1.5449442      19683               2349 
    360500   2003.1916      250151.65     -200008.72      14020.222     -185988.5       1.5449442      19683               2349 
    361000   2082.2422      263950.31     -200360.88      14573.493     -185787.39      1.5449442      19683               2349 
    361500   2023.7464      264521.51     -199964.65      14164.084     -185800.57      1.5449442      19683               2349 
    362000   2077.2714      255692.09     -200655.57      14538.702     -186116.87      1.5449442      19683               2349 
    362500   2004.5348      257636.72     -200555.25      14029.623     -186525.63      1.5449442      19683               2349 
    363000   2023.468       258049.5      -200856.8       14162.135     -186694.66      1.5449442      19683               2349 
    363500   2003.4464      253883.72     -200813.19      14022.005     -186791.18      1.5449442      19683               2349 
    364000   2036.8306      247005.29     -201129.5       14255.659     -186873.84      1.5449442      19683               2349 
    364500   1957.2967      261951.44     -200638.14      13699.006     -186939.14      1.5449442      19683               2349 
    365000   2005.8781      267569.8      -201049.69      14039.024     -187010.66      1.5449442      19683               2349 
    365500   1987.6222      257724.13     -200961.34      13911.253     -187050.09      1.5449442      19683               2349 
    366000   1965.4933      262807.77     -200801.66      13756.373     -187045.28      1.5449442      19683               2349 
    366500   1979.5271      245288.02     -200803.77      13854.596     -186949.18      1.5449442      19683               2349 
    367000   2022.5811      260092.77     -200879.66      14155.927     -186723.73      1.5449442      19683               2349 
    367500   2037.4866      263241.4      -200686.76      14260.251     -186426.51      1.5449442      19683               2349 
    368000   2043.8229      254346.41     -200520.53      14304.598     -186215.93      1.5449442      19683               2349 
    368500   2058.4369      250543.68     -200560.77      14406.881     -186153.89      1.5449442      19683               2349 
    369000   2011.9291      261718.43     -200334.56      14081.375     -186253.19      1.5449442      19683               2349 
    369500   2021.2117      257831.7      -200559.9       14146.343     -186413.55      1.5449442      19683               2349 
    370000   2013.4509      261187.77     -200659.15      14092.026     -186567.13      1.5449442      19683               2349 
    370500   1979.1419      269750.89     -200525.65      13851.899     -186673.75      1.5449442      19683               2349 
    371000   1949.386       263605.99     -200349.56      13643.639     -186705.92      1.5449442      19683               2349 
    371500   2021.2505      259172.46     -200853.43      14146.615     -186706.81      1.5449442      19683               2349 
    372000   1983.8808      255398.31     -200608.14      13885.067     -186723.08      1.5449442      19683               2349 
    372500   1980.9623      257805.43     -200605.05      13864.64      -186740.41      1.5449442      19683               2349 
    373000   2014.5162      261655.22     -200848.87      14099.482     -186749.39      1.5449442      19683               2349 
    373500   1990.053       263751.77     -200694.24      13928.266     -186765.98      1.5449442      19683               2349 
    374000   2023.1295      265861.54     -200960.63      14159.766     -186800.86      1.5449442      19683               2349 
    374500   2002.322       262915.15     -200869.7       14014.135     -186855.56      1.5449442      19683               2349 
    375000   1992.6306      252691.85     -200917.45      13946.306     -186971.15      1.5449442      19683               2349 
    375500   1993.0926      267613.14     -201048.45      13949.54      -187098.91      1.5449442      19683               2349 
    376000   1982.476       264944.57     -201045.61      13875.234     -187170.37      1.5449442      19683               2349 
    376500   1972.6824      264554.71     -200962.92      13806.69      -187156.23      1.5449442      19683               2349 
    377000   2009.8007      257922.4      -201106.68      14066.479     -187040.2       1.5449442      19683               2349 
    377500   1997.1573      261818.92     -200798.49      13977.988     -186820.5       1.5449442      19683               2349 
    378000   1984.2701      257929.07     -200477.2       13887.791     -186589.41      1.5449442      19683               2349 
    378500   2025.9252      261590.89     -200588.13      14179.333     -186408.79      1.5449442      19683               2349 
    379000   1999.7808      253790.73     -200307.36      13996.35      -186311.01      1.5449442      19683               2349 
    379500   2041.349       266651.61     -200608.49      14287.283     -186321.21      1.5449442      19683               2349 
    380000   2007.0675      259008.93     -200675.79      14047.349     -186628.44      1.5449442      19683               2349 
    380500   1950.5765      257055.5      -200707.18      13651.972     -187055.21      1.5449442      19683               2349 
    381000   1998.9394      244413.53     -201200.55      13990.461     -187210.09      1.5449442      19683               2349 
    381500   1940.0551      262027.76     -200820.74      13578.333     -187242.4       1.5449442      19683               2349 
    382000   1994.9673      258940.55     -201104.96      13962.661     -187142.3       1.5449442      19683               2349 
    382500   1973.464       251039.35     -200805.54      13812.16      -186993.38      1.5449442      19683               2349 
    383000   2034.1608      259980.03     -201014.28      14236.973     -186777.31      1.5449442      19683               2349 
    383500   2071.527       257368.87     -201091.72      14498.497     -186593.23      1.5449442      19683               2349 
    384000   2026.6332      258884.06     -200714.41      14184.289     -186530.12      1.5449442      19683               2349 
    384500   2046.0561      264555.29     -200852.7       14320.228     -186532.47      1.5449442      19683               2349 
    385000   2028.9143      254544.39     -200822.66      14200.253     -186622.4       1.5449442      19683               2349 
    385500   1988.5228      268341.84     -200865.81      13917.556     -186948.25      1.5449442      19683               2349 
    386000   1966.2604      253874.54     -201053.78      13761.743     -187292.04      1.5449442      19683               2349 
    386500   2007.7614      251566.63     -201456.26      14052.205     -187404.05      1.5449442      19683               2349 
    387000   1993.0477      256641.15     -201326.38      13949.225     -187377.16      1.5449442      19683               2349 
    387500   1981.2495      259014.53     -201132.62      13866.651     -187265.97      1.5449442      19683               2349 
    388000   2011.5676      260954.86     -201197.66      14078.845     -187118.82      1.5449442      19683               2349 
    388500   1977.5844      260446.28     -200742.43      13840.999     -186901.43      1.5449442      19683               2349 
    389000   1985.8936      255732.85     -200566.27      13899.154     -186667.11      1.5449442      19683               2349 
    389500   2023.3568      264160.21     -200632.93      14161.357     -186471.57      1.5449442      19683               2349 
    390000   2052.1232      261139.15     -200760.51      14362.691     -186397.82      1.5449442      19683               2349 
    390500   2034.8775      252596.46     -200638.5       14241.99      -186396.51      1.5449442      19683               2349 
    391000   2023.5396      274561.28     -200613.76      14162.636     -186451.13      1.5449442      19683               2349 
    391500   1983.5982      262675.12     -200466.38      13883.088     -186583.29      1.5449442      19683               2349 
    392000   1954.7589      264233.09     -200380.08      13681.244     -186698.84      1.5449442      19683               2349 
    392500   1992.6421      262096.03     -200701.64      13946.387     -186755.26      1.5449442      19683               2349 
    393000   2012.8591      255479.93     -200927.78      14087.884     -186839.89      1.5449442      19683               2349 
    393500   1996.2544      252472.58     -200902.88      13971.669     -186931.21      1.5449442      19683               2349 
    394000   2018.9623      253053.32     -201248.22      14130.6       -187117.62      1.5449442      19683               2349 
    394500   1989.8644      246390.98     -201380.54      13926.945     -187453.6       1.5449442      19683               2349 
    395000   1932.5954      249423.46     -201183.62      13526.123     -187657.49      1.5449442      19683               2349 
    395500   1969.7467      250656.77     -201460.63      13786.143     -187674.49      1.5449442      19683               2349 
    396000   1943.5271      256586.09     -201126.06      13602.633     -187523.42      1.5449442      19683               2349 
    396500   1971.5517      247993.17     -201007.58      13798.776     -187208.8       1.5449442      19683               2349 
    397000   2022.1604      263120.89     -201141.12      14152.984     -186988.14      1.5449442      19683               2349 
    397500   2005.9264      263733.93     -200907.74      14039.363     -186868.38      1.5449442      19683               2349 
    398000   1998.1395      263807.49     -200783.26      13984.862     -186798.4       1.5449442      19683               2349 
    398500   2042.7977      258814.5      -201003.48      14297.422     -186706.06      1.5449442      19683               2349 
    399000   2028.0952      253423.47     -200846.03      14194.521     -186651.51      1.5449442      19683               2349 
    399500   1984.6304      258527.43     -200547.25      13890.313     -186656.94      1.5449442      19683               2349 
    400000   2013.1767      255635.38     -200792.16      14090.107     -186702.05      1.5449442      19683               2349 
    400500   1996.2905      261619.78     -200800.41      13971.922     -186828.48      1.5449442      19683               2349 
    401000   1988.228       266802.28     -201008.4       13915.492     -187092.91      1.5449442      19683               2349 
    401500   1959.0798      251274        -200989.73      13711.486     -187278.24      1.5449442      19683               2349 
    402000   1949.1795      254995.38     -201005.35      13642.194     -187363.15      1.5449442      19683               2349 
    402500   1951.7512      257679.96     -200968.91      13660.194     -187308.72      1.5449442      19683               2349 
    403000   1952.932       254488.7      -200794.28      13668.458     -187125.82      1.5449442      19683               2349 
    403500   2004.8893      261093.68     -200826.39      14032.104     -186794.28      1.5449442      19683               2349 
    404000   2020.3549      257666.72     -200681.78      14140.347     -186541.43      1.5449442      19683               2349 
    404500   2034.7832      272938.35     -200680.87      14241.329     -186439.55      1.5449442      19683               2349 
    405000   2091.5636      264804.49     -201086.73      14638.732     -186447.99      1.5449442      19683               2349 
    405500   1989.6102      245378.69     -200439.51      13925.166     -186514.34      1.5449442      19683               2349 
    406000   1996.8881      260676.39     -200581.54      13976.104     -186605.43      1.5449442      19683               2349 
    406500   2006.5103      262619.33     -200755.85      14043.449     -186712.4       1.5449442      19683               2349 
    407000   2026.0746      265092.63     -201014.65      14180.378     -186834.27      1.5449442      19683               2349 
    407500   1943.5079      253078.97     -200627.89      13602.499     -187025.39      1.5449442      19683               2349 
    408000   1986.7141      258234.65     -201157.46      13904.897     -187252.57      1.5449442      19683               2349 
    408500   1971.0506      258526.76     -201209.38      13795.269     -187414.11      1.5449442      19683               2349 
    409000   1990.8175      259425.13     -201340.42      13933.616     -187406.8       1.5449442      19683               2349 
    409500   1939.9478      265402.21     -200869.77      13577.582     -187292.19      1.5449442      19683               2349 
    410000   1975.9718      260270.11     -201008.86      13829.712     -187179.15      1.5449442      19683               2349 
    410500   1912.6389      258263.67     -200457.72      13386.449     -187071.27      1.5449442      19683               2349 
    411000   2007.3186      268403.88     -200905.55      14049.106     -186856.44      1.5449442      19683               2349 
    411500   2007.3685      254887.72     -200703.35      14049.456     -186653.9       1.5449442      19683               2349 
    412000   1991.1673      263260.79     -200458.85      13936.065     -186522.79      1.5449442      19683               2349 
    412500   2014.7228      263564.3      -200568.33      14100.928     -186467.4       1.5449442      19683               2349 
    413000   1988.8522      255944.26     -200459.93      13919.861     -186540.06      1.5449442      19683               2349 
    413500   1986.8662      270870.14     -200621.35      13905.961     -186715.39      1.5449442      19683               2349 
    414000   1991.6569      260645.67     -200983.84      13939.491     -187044.35      1.5449442      19683               2349 
    414500   1950.6225      251811.34     -200907.82      13652.294     -187255.52      1.5449442      19683               2349 
    415000   1970.9143      267533.56     -201091.07      13794.315     -187296.75      1.5449442      19683               2349 
    415500   1962.8089      258984.12     -200993.41      13737.586     -187255.83      1.5449442      19683               2349 
    416000   2018.6998      257433.49     -201316.63      14128.763     -187187.87      1.5449442      19683               2349 
    416500   1992.7411      264649.15     -201018.19      13947.08      -187071.11      1.5449442      19683               2349 
    417000   1977.8768      271379.52     -200810.42      13843.045     -186967.37      1.5449442      19683               2349 
    417500   2038.187       256452.28     -201067.39      14265.152     -186802.24      1.5449442      19683               2349 
    418000   2050.2558      260345.79     -200949.01      14349.622     -186599.38      1.5449442      19683               2349 
    418500   2054.5604      258892.2      -200665.08      14379.749     -186285.34      1.5449442      19683               2349 
    419000   2076.6076      263096.76     -200484.77      14534.056     -185950.72      1.5449442      19683               2349 
    419500   2056.9156      262619.93     -200228.57      14396.233     -185832.34      1.5449442      19683               2349 
    420000   2040.595       277141.96     -200317.86      14282.006     -186035.86      1.5449442      19683               2349 
    420500   1957.4501      266691.19     -200033.68      13700.08      -186333.6       1.5449442      19683               2349 
    421000   2021.0727      264730.67     -200614.23      14145.371     -186468.86      1.5449442      19683               2349 
    421500   2013.164       264883.81     -200673.01      14090.018     -186582.99      1.5449442      19683               2349 
    422000   1968.32        269673.98     -200484.71      13776.157     -186708.55      1.5449442      19683               2349 
    422500   2021.7866      256968.84     -200991.53      14150.367     -186841.17      1.5449442      19683               2349 
    423000   2040.3136      258490.46     -201305.95      14280.036     -187025.92      1.5449442      19683               2349 
    423500   1970.8798      271473.9      -201035.03      13794.074     -187240.96      1.5449442      19683               2349 
    424000   1992.6255      260189.51     -201282.45      13946.27      -187336.18      1.5449442      19683               2349 
    424500   1968.2997      263923.92     -201097.91      13776.016     -187321.89      1.5449442      19683               2349 
    425000   1972.0197      251467.85     -201038.01      13802.051     -187235.96      1.5449442      19683               2349 
    425500   1968.2612      274101.71     -200773.3       13775.746     -186997.56      1.5449442      19683               2349 
    426000   2018.2935      263035.54     -200701.73      14125.919     -186575.82      1.5449442      19683               2349 
    426500   2036.4328      268400.53     -200612.17      14252.875     -186359.29      1.5449442      19683               2349 
    427000   2027.4661      257506.91     -200539.77      14190.117     -186349.65      1.5449442      19683               2349 
    427500   2023.3897      261289.47     -200636.01      14161.587     -186474.42      1.5449442      19683               2349 
    428000   2018.792       266433.2      -200777.51      14129.408     -186648.1       1.5449442      19683               2349 
    428500   1984.9597      254338.93     -200721.73      13892.617     -186829.11      1.5449442      19683               2349 
    429000   1988.2229      262981.43     -200844.31      13915.456     -186928.86      1.5449442      19683               2349 
    429500   1907.7969      263807.69     -200292.44      13352.56      -186939.88      1.5449442      19683               2349 
    430000   1997.8606      266571.34     -200762.43      13982.91      -186779.52      1.5449442      19683               2349 
    430500   2017.8938      262898.37     -200636.08      14123.122     -186512.96      1.5449442      19683               2349 
    431000   2041.6361      263325.18     -200577.05      14289.293     -186287.76      1.5449442      19683               2349 
    431500   2043.7525      266535.27     -200538.91      14304.105     -186234.8       1.5449442      19683               2349 
    432000   2033.0107      265578.71     -200652.21      14228.924     -186423.28      1.5449442      19683               2349 
    432500   1973.3065      261736.68     -200750.63      13811.058     -186939.57      1.5449442      19683               2349 
    433000   1946.0825      262340.88     -200779.35      13620.519     -187158.83      1.5449442      19683               2349 
    433500   1927.4178      266808.28     -200681.03      13489.885     -187191.15      1.5449442      19683               2349 
    434000   2002.4595      252597.42     -201133.04      14015.098     -187117.94      1.5449442      19683               2349 
    434500   1965.2855      263340.48     -200717.53      13754.919     -186962.62      1.5449442      19683               2349 
    435000   2016.8305      259061.16     -200890.15      14115.68      -186774.47      1.5449442      19683               2349 
    435500   1995.1265      270645.99     -200558         13963.775     -186594.23      1.5449442      19683               2349 
    436000   2039.743       257011.86     -200709.05      14276.043     -186433.01      1.5449442      19683               2349 
    436500   2040.2913      259364.18     -200660.24      14279.881     -186380.36      1.5449442      19683               2349 
    437000   2031.6729      274271.79     -200696.84      14219.561     -186477.28      1.5449442      19683               2349 
    437500   2010.0334      259943.34     -200823.19      14068.107     -186755.08      1.5449442      19683               2349 
    438000   1967.5264      259181.36     -200867.78      13770.603     -187097.17      1.5449442      19683               2349 
    438500   1957.0586      260919.15     -200925.92      13697.339     -187228.58      1.5449442      19683               2349 
    439000   1975.7995      251215.43     -201034.9       13828.506     -187206.4       1.5449442      19683               2349 
    439500   1962.7007      256143.86     -200841.48      13736.828     -187104.65      1.5449442      19683               2349 
    440000   1931.0956      252603.12     -200529.67      13515.626     -187014.04      1.5449442      19683               2349 
    440500   2055.1064      259953.19     -201245.29      14383.57      -186861.72      1.5449442      19683               2349 
    441000   1997.205       257808.5      -200689.29      13978.322     -186710.96      1.5449442      19683               2349 
    441500   2049.1487      263141.97     -200927.37      14341.873     -186585.49      1.5449442      19683               2349 
    442000   2004.3564      257953.13     -200488.44      14028.374     -186460.06      1.5449442      19683               2349 
    442500   1996.0348      255889.25     -200213.78      13970.132     -186243.65      1.5449442      19683               2349 
    443000   2061.0722      264205.44     -200384.01      14425.325     -185958.69      1.5449442      19683               2349 
    443500   2059.1642      264845.02     -200280.02      14411.971     -185868.05      1.5449442      19683               2349 
    444000   2064.5581      261845.33     -200544.2       14449.722     -186094.48      1.5449442      19683               2349 
    444500   2053.5672      269292.53     -200814.87      14372.798     -186442.07      1.5449442      19683               2349 
    445000   2019.7513      264162.75     -200738.81      14136.122     -186602.69      1.5449442      19683               2349 
    445500   2022.5241      250692.94     -200888.99      14155.529     -186733.46      1.5449442      19683               2349 
    446000   2018.148       257478.44     -201013.29      14124.901     -186888.39      1.5449442      19683               2349 
    446500   1997.7561      254418.53     -201034.35      13982.179     -187052.17      1.5449442      19683               2349 
    447000   1978.9629      257787.73     -201034.8       13850.646     -187184.15      1.5449442      19683               2349 
    447500   1966.0757      260182.52     -200985.91      13760.45      -187225.46      1.5449442      19683               2349 
    448000   1996.8425      261803.74     -201186.63      13975.785     -187210.85      1.5449442      19683               2349 
    448500   2054.2298      246364.09     -201488.75      14377.435     -187111.32      1.5449442      19683               2349 
    449000   2011.02        258432.09     -200992.15      14075.012     -186917.14      1.5449442      19683               2349 
    449500   1986.5913      255867.53     -200485.09      13904.038     -186581.05      1.5449442      19683               2349 
    450000   2035.7012      273218.48     -200593.26      14247.755     -186345.5       1.5449442      19683               2349 
    450500   2034.8585      260206.8      -200556.58      14241.856     -186314.72      1.5449442      19683               2349 
    451000   2039.7006      264994.31     -200718.43      14275.746     -186442.68      1.5449442      19683               2349 
    451500   2002.5772      266007.15     -200654.81      14015.922     -186638.89      1.5449442      19683               2349 
    452000   2018.7294      266733.12     -200931.11      14128.97      -186802.14      1.5449442      19683               2349 
    452500   1979.0917      254421.34     -200709.71      13851.548     -186858.16      1.5449442      19683               2349 
    453000   2011.7154      256306.21     -200945.36      14079.88      -186865.48      1.5449442      19683               2349 
    453500   2033.5939      264090.49     -201115.12      14233.006     -186882.12      1.5449442      19683               2349 
    454000   2031.5704      254724.29     -201154.71      14218.844     -186935.87      1.5449442      19683               2349 
    454500   1994.3138      257921.23     -200937.11      13958.087     -186979.02      1.5449442      19683               2349 
    455000   2021.4071      254716.6      -201170.57      14147.711     -187022.86      1.5449442      19683               2349 
    455500   1966.909       255398.6      -200816.51      13766.282     -187050.23      1.5449442      19683               2349 
    456000   1968.2685      253218.61     -200903.96      13775.797     -187128.16      1.5449442      19683               2349 
    456500   2002.7044      249978.89     -201322.33      14016.812     -187305.52      1.5449442      19683               2349 
    457000   1965.5562      260377.65     -201223.53      13756.814     -187466.71      1.5449442      19683               2349 
    457500   1969.8144      248421.42     -201309.1       13786.616     -187522.48      1.5449442      19683               2349 
    458000   1985.5377      258533.41     -201352.67      13896.663     -187456.01      1.5449442      19683               2349 
    458500   1959.5788      257593.91     -200944.18      13714.979     -187229.2       1.5449442      19683               2349 
    459000   2011.3513      265400.14     -201048.46      14077.331     -186971.13      1.5449442      19683               2349 
    459500   2046.0339      256821.65     -201089.07      14320.073     -186768.99      1.5449442      19683               2349 
    460000   2004.1329      264529.96     -200746.89      14026.81      -186720.08      1.5449442      19683               2349 
    460500   2013.1581      264615.74     -200805.73      14089.977     -186715.76      1.5449442      19683               2349 
    461000   2034.515       270311        -201023.16      14239.453     -186783.71      1.5449442      19683               2349 
    461500   2002.361       257885.77     -201000.47      14014.408     -186986.06      1.5449442      19683               2349 
    462000   1969.4172      263636.23     -200961.44      13783.837     -187177.61      1.5449442      19683               2349 
    462500   2006.7503      249518.59     -201318.58      14045.129     -187273.45      1.5449442      19683               2349 
    463000   2008.4119      248390.39     -201341.92      14056.758     -187285.16      1.5449442      19683               2349 
    463500   1997.8006      250279.68     -201228.48      13982.491     -187245.99      1.5449442      19683               2349 
    464000   1982.0341      254316.13     -201053.89      13872.141     -187181.75      1.5449442      19683               2349 
    464500   1966.0534      271250.98     -200825.93      13760.294     -187065.63      1.5449442      19683               2349 
    465000   2026.6198      260742.63     -201134.55      14184.194     -186950.36      1.5449442      19683               2349 
    465500   2010.2913      267806.83     -200947.36      14069.912     -186877.44      1.5449442      19683               2349 
    466000   2029.1414      256375.73     -201065.18      14201.843     -186863.33      1.5449442      19683               2349 
    466500   2075.409       254099.34     -201448.33      14525.667     -186922.66      1.5449442      19683               2349 
    467000   1988.5616      265516.94     -201116.14      13917.827     -187198.31      1.5449442      19683               2349 
    467500   1972.2259      250567.41     -201287.42      13803.495     -187483.93      1.5449442      19683               2349 
    468000   1942.9909      257329.2      -201190.14      13598.881     -187591.26      1.5449442      19683               2349 
    468500   1969.9135      246707.78     -201371.36      13787.31      -187584.05      1.5449442      19683               2349 
    469000   1986.2595      254628.73     -201373.47      13901.715     -187471.76      1.5449442      19683               2349 
    469500   2032.4765      268590.53     -201494.07      14225.185     -187268.88      1.5449442      19683               2349 
    470000   2022.6567      264159.47     -201259.78      14156.457     -187103.33      1.5449442      19683               2349 
    470500   2017.4261      262782.85     -201032.82      14119.848     -186912.97      1.5449442      19683               2349 
    471000   2003.4059      270778.13     -200736.34      14021.721     -186714.62      1.5449442      19683               2349 
    471500   2003.7328      263961.17     -200398.45      14024.01      -186374.44      1.5449442      19683               2349 
    472000   2059.7559      272791.54     -200415.36      14416.112     -185999.25      1.5449442      19683               2349 
    472500   2072.6633      274352.98     -200433.71      14506.45      -185927.26      1.5449442      19683               2349 
    473000   2033.1763      270517.69     -200327.36      14230.083     -186097.28      1.5449442      19683               2349 
    473500   2044.2663      264855.22     -200638.88      14307.701     -186331.18      1.5449442      19683               2349 
    474000   2022.0972      264067.14     -200648.13      14152.541     -186495.59      1.5449442      19683               2349 
    474500   2065.5799      245928.82     -201116.55      14456.874     -186659.67      1.5449442      19683               2349 
    475000   2039.1312      253047.42     -201122.35      14271.761     -186850.59      1.5449442      19683               2349 
    475500   2017.5169      257482.76     -201154.09      14120.484     -187033.6       1.5449442      19683               2349 
    476000   1981.509       257559.65     -201059.41      13868.467     -187190.94      1.5449442      19683               2349 
    476500   1978.8295      256362        -201135.07      13849.713     -187285.35      1.5449442      19683               2349 
    477000   1942.4357      260193.86     -200875.32      13594.995     -187280.32      1.5449442      19683               2349 
    477500   1961.2722      259938.38     -200962.46      13726.83      -187235.63      1.5449442      19683               2349 
    478000   1997.2084      244523.16     -201054.78      13978.345     -187076.43      1.5449442      19683               2349 
    478500   2010.8547      265046.55     -200884.36      14073.855     -186810.5       1.5449442      19683               2349 
    479000   2045.8428      267007.14     -200858.54      14318.735     -186539.8       1.5449442      19683               2349 
    479500   2025.4209      274586.67     -200646.89      14175.803     -186471.08      1.5449442      19683               2349 
    480000   2068.7392      259749.4      -201085.88      14478.986     -186606.9       1.5449442      19683               2349 
    480500   2021.6062      270527.49     -201098.45      14149.104     -186949.35      1.5449442      19683               2349 
    481000   1977.901       266860.92     -201024.42      13843.215     -187181.21      1.5449442      19683               2349 
    481500   1951.3201      259474.78     -200878.33      13657.177     -187221.16      1.5449442      19683               2349 
    482000   1987.4337      264109.42     -201107.27      13909.933     -187197.34      1.5449442      19683               2349 
    482500   1960.0438      269999.11     -200860.87      13718.233     -187142.64      1.5449442      19683               2349 
    483000   2003.3888      253539.25     -201053.81      14021.602     -187032.2       1.5449442      19683               2349 
    483500   1984.927       263823.79     -200783.9       13892.389     -186891.51      1.5449442      19683               2349 
    484000   1999.4606      262013.59     -200763.88      13994.109     -186769.77      1.5449442      19683               2349 
    484500   2051.8749      251435.05     -201038.27      14360.954     -186677.32      1.5449442      19683               2349 
    485000   2055.319       256839.91     -201045.56      14385.058     -186660.51      1.5449442      19683               2349 
    485500   2018.8132      248132.57     -200974.55      14129.557     -186845         1.5449442      19683               2349 
    486000   1995.7008      261661.56     -201130.02      13967.794     -187162.23      1.5449442      19683               2349 
    486500   1937.2012      264532.7      -200911.72      13558.359     -187353.36      1.5449442      19683               2349 
    487000   2012.2635      261949.7      -201512.19      14083.716     -187428.47      1.5449442      19683               2349 
    487500   2005.2117      253949.33     -201482.66      14034.36      -187448.3       1.5449442      19683               2349 
    488000   1973.8592      259441.65     -201240.58      13814.926     -187425.65      1.5449442      19683               2349 
    488500   1982.6537      256159.99     -201188.27      13876.478     -187311.79      1.5449442      19683               2349 
    489000   2028.4785      262460.81     -201302.28      14197.203     -187105.07      1.5449442      19683               2349 
    489500   1961.2764      261589.31     -200457.66      13726.859     -186730.8       1.5449442      19683               2349 
    490000   2038.9226      256168.69     -200728.64      14270.301     -186458.34      1.5449442      19683               2349 
    490500   2068.4473      264161.21     -200901.31      14476.943     -186424.37      1.5449442      19683               2349 
    491000   2028.5566      259698.09     -200768.81      14197.75      -186571.06      1.5449442      19683               2349 
    491500   2007.3302      267132.15     -200840.86      14049.188     -186791.68      1.5449442      19683               2349 
    492000   2028.0892      265871.29     -201175.4       14194.479     -186980.92      1.5449442      19683               2349 
    492500   1996.8809      264007.86     -201101.29      13976.053     -187125.24      1.5449442      19683               2349 
    493000   2062.4657      258618.56     -201646.17      14435.078     -187211.1       1.5449442      19683               2349 
    493500   1965.9602      260997.09     -201053.41      13759.642     -187293.77      1.5449442      19683               2349 
    494000   2020.9262      252335.65     -201478.53      14144.345     -187334.19      1.5449442      19683               2349 
    494500   1964.3655      262182.6      -201045.23      13748.48      -187296.75      1.5449442      19683               2349 
    495000   1995.9627      257777.84     -201096.98      13969.627     -187127.36      1.5449442      19683               2349 
    495500   2017.5911      258021.73     -200934.69      14121.003     -186813.69      1.5449442      19683               2349 
    496000   2016.8393      262917.17     -200624.69      14115.741     -186508.94      1.5449442      19683               2349 
    496500   2018.6804      271289.1      -200556.17      14128.627     -186427.55      1.5449442      19683               2349 
    497000   2023.5757      269122.58     -200618.38      14162.889     -186455.49      1.5449442      19683               2349 
    497500   2013.6262      259487.84     -200678.04      14093.253     -186584.79      1.5449442      19683               2349 
    498000   2025.4219      255838.21     -200940.97      14175.81      -186765.16      1.5449442      19683               2349 
    498500   2032.4868      257380.28     -201114.02      14225.257     -186888.76      1.5449442      19683               2349 
    499000   1932.0809      269455.1      -200501.49      13522.522     -186978.97      1.5449442      19683               2349 
    499500   1968.1973      263740.66     -200803.99      13775.299     -187028.69      1.5449442      19683               2349 
    500000   1962.2596      261217.14     -200792.89      13733.741     -187059.15      1.5449442      19683               2349 
    500500   1977.1148      262335.54     -200904.53      13837.712     -187066.82      1.5449442      19683               2349 
    501000   1980.6721      267044.71     -200922.3       13862.609     -187059.69      1.5449442      19683               2349 
    501500   1982.9525      264524.91     -200898.03      13878.569     -187019.46      1.5449442      19683               2349 
    502000   2054.7512      243744        -201344.25      14381.085     -186963.17      1.5449442      19683               2349 
    502500   2023.3541      262372.94     -201071.77      14161.338     -186910.43      1.5449442      19683               2349 
    503000   2023.3415      258678.14     -201023.4       14161.25      -186862.15      1.5449442      19683               2349 
    503500   2020.1147      261057.87     -200998.69      14138.666     -186860.03      1.5449442      19683               2349 
    504000   1958.1083      256417.76     -200643.68      13704.686     -186938.99      1.5449442      19683               2349 
    504500   1991.4633      263794.12     -200974.34      13938.136     -187036.21      1.5449442      19683               2349 
    505000   2016.3154      256303.62     -201306.93      14112.074     -187194.85      1.5449442      19683               2349 
    505500   1986.9141      249085.21     -201325.67      13906.296     -187419.37      1.5449442      19683               2349 
    506000   1976.3145      245339.07     -201449.98      13832.11      -187617.87      1.5449442      19683               2349 
    506500   1959.9184      257123.86     -201410.14      13717.355     -187692.78      1.5449442      19683               2349 
    507000   1968.5389      236428.35     -201415.01      13777.69      -187637.32      1.5449442      19683               2349 
    507500   1962.0284      257614.02     -201207.79      13732.123     -187475.67      1.5449442      19683               2349 
    508000   1999.4585      267325.44     -201245.42      13994.094     -187251.33      1.5449442      19683               2349 
    508500   2002.6923      256020.01     -201148.64      14016.727     -187131.91      1.5449442      19683               2349 
    509000   2011.6943      264932.21     -201153.04      14079.732     -187073.3       1.5449442      19683               2349 
    509500   2002.2181      269014.3      -201076.19      14013.408     -187062.78      1.5449442      19683               2349 
    510000   1969.8173      262614.01     -200874.44      13786.637     -187087.81      1.5449442      19683               2349 
    510500   2019.3412      256543.55     -201217.42      14133.252     -187084.17      1.5449442      19683               2349 
    511000   2010.195       262712.16     -201190.74      14069.238     -187121.5       1.5449442      19683               2349 
    511500   2034.7345      259062.48     -201463.63      14240.989     -187222.64      1.5449442      19683               2349 
    512000   1957.042       257034.28     -201123.62      13697.223     -187426.4       1.5449442      19683               2349 
    512500   1957.0111      260551.5      -201330.06      13697.007     -187633.06      1.5449442      19683               2349 
    513000   1980.5864      257122.24     -201622.81      13862.009     -187760.8       1.5449442      19683               2349 
    513500   1921.9986      253290.52     -201244.3       13451.957     -187792.34      1.5449442      19683               2349 
    514000   1971.923       263458.3      -201408.4       13801.375     -187607.02      1.5449442      19683               2349 
    514500   2018.5352      263518.41     -201336.08      14127.611     -187208.47      1.5449442      19683               2349 
    515000   2024.386       270378.24     -201118.09      14168.56      -186949.53      1.5449442      19683               2349 
    515500   1983.899       266817.54     -200754.94      13885.194     -186869.74      1.5449442      19683               2349 
    516000   2014.8046      259208.18     -200918.55      14101.501     -186817.05      1.5449442      19683               2349 
    516500   2032.31        268854.3      -201037.31      14224.02      -186813.29      1.5449442      19683               2349 
    517000   2001.4179      254693.38     -200856.69      14007.808     -186848.88      1.5449442      19683               2349 
    517500   1998.2261      258065.65     -201023.45      13985.468     -187037.98      1.5449442      19683               2349 
    518000   1973.3129      256585.16     -201126.68      13811.102     -187315.57      1.5449442      19683               2349 
    518500   1987.5723      257080.39     -201436.32      13910.903     -187525.42      1.5449442      19683               2349 
    519000   1979.0297      266473.2      -201420.58      13851.114     -187569.46      1.5449442      19683               2349 
    519500   1988.6828      267620.04     -201383.27      13918.676     -187464.6       1.5449442      19683               2349 
    520000   1979.3917      256730.05     -201183.11      13853.648     -187329.47      1.5449442      19683               2349 
    520500   1954.0655      253723.43     -200925.84      13676.391     -187249.45      1.5449442      19683               2349 
    521000   1994.7994      241872.36     -201135.63      13961.485     -187174.15      1.5449442      19683               2349 
    521500   2016.3372      253343.51     -201241.48      14112.227     -187129.25      1.5449442      19683               2349 
    522000   2005.6444      269979.28     -201161.81      14037.389     -187124.42      1.5449442      19683               2349 
    522500   1988.9714      249397.55     -201033.46      13920.696     -187112.76      1.5449442      19683               2349 
    523000   1983.3705      264651.48     -200944.56      13881.495     -187063.07      1.5449442      19683               2349 
    523500   2028.6684      256704.52     -201149.85      14198.533     -186951.32      1.5449442      19683               2349 
    524000   1969.3536      254198.4      -200490.71      13783.392     -186707.32      1.5449442      19683               2349 
    524500   2065.823       263762.3      -200811.3       14458.575     -186352.73      1.5449442      19683               2349 
    525000   2078.937       268357.66     -200760.03      14550.359     -186209.67      1.5449442      19683               2349 
    525500   2062.1312      256109.33     -200749.23      14432.737     -186316.49      1.5449442      19683               2349 
    526000   2030.1573      265430.41     -200803.19      14208.953     -186594.24      1.5449442      19683               2349 
    526500   2034.3832      263507.04     -201043.44      14238.53      -186804.91      1.5449442      19683               2349 
    527000   1979.4769      253542.93     -200773.25      13854.244     -186919.01      1.5449442      19683               2349 
    527500   1999.0599      254419.91     -200973.06      13991.304     -186981.75      1.5449442      19683               2349 
    528000   2037.6038      245867.27     -201304.96      14261.071     -187043.89      1.5449442      19683               2349 
    528500   2019.9867      249084.59     -201279.66      14137.77      -187141.89      1.5449442      19683               2349 
    529000   1948.2674      251427.36     -200871.16      13635.81      -187235.35      1.5449442      19683               2349 
    529500   1905.8062      252009.83     -200640.43      13338.627     -187301.8       1.5449442      19683               2349 
    530000   2008.5545      255677.97     -201375.56      14057.757     -187317.8       1.5449442      19683               2349 
    530053   1936.7589      254472.82     -200873.68      13555.263     -187318.42      1.5449442      19683               2349 
Loop time of 23014.7 on 48 procs for 400000 steps with 2349 atoms

Performance: 0.150 ns/day, 159.824 hours/ns, 17.380 timesteps/s, 40.826 katom-step/s
99.4% CPU use with 12 MPI tasks x 4 OpenMP threads

MPI task timing breakdown:
Section |  min time  |  avg time  |  max time  |%varavg| %total
---------------------------------------------------------------
Pair    | 19178      | 19360      | 19554      |  88.7 | 84.12
Neigh   | 153.04     | 154.06     | 155.3      |   5.1 |  0.67
Comm    | 310.14     | 502.97     | 685.86     | 550.4 |  2.19
Output  | 0.10374    | 0.12068    | 0.14521    |   3.1 |  0.00
Modify  | 2985.8     | 2987       | 2988.4     |   1.5 | 12.98
Other   |            | 10.21      |            |       |  0.04

Nlocal:         195.75 ave         206 max         183 min
Histogram: 1 1 0 1 1 2 3 1 0 2
Nghost:        5303.33 ave        5363 max        5241 min
Histogram: 1 1 2 0 2 2 0 1 2 1
Neighs:         152070 ave      160070 max      142496 min
Histogram: 2 0 1 0 2 0 4 1 0 2

Total # of neighbors = 1824846
Ave neighs/atom = 776.86079
Neighbor list builds = 4168
Dangerous builds = 0
System init for write_restart ...
--- Condensation Stage 2/4 ---
Setting up Verlet run ...
  Unit style    : real
  Current step  : 530053
  Time step     : 0.1
Per MPI rank memory allocation (min/avg/max) = 374.1 | 381.3 | 386.5 Mbytes
   Step          Temp          Press          PotEng         KinEng         TotEng        Density         Volume        Atoms   
    530053   1936.7589      254473.25     -200873.68      13555.263     -187318.42      1.5449442      19683               2349 
    530500   1990.7387      244524.72     -201268.41      13933.065     -187335.35      1.5449442      19683               2349 
    531000   1994.2193      252939.79     -201273.64      13957.425     -187316.22      1.5449442      19683               2349 
    531500   2037.8003      245157.2      -201506.9       14262.446     -187244.45      1.5449442      19683               2349 
    532000   2003.1199      264299.97     -201135.29      14019.72      -187115.57      1.5449442      19683               2349 
    532500   2005.1544      255806.71     -201022.1       14033.959     -186988.14      1.5449442      19683               2349 
    533000   1960.111       252250.63     -200593.31      13718.703     -186874.61      1.5449442      19683               2349 
    533500   2069.4522      242233.06     -201258.09      14483.976     -186774.11      1.5449442      19683               2349 
    534000   2030.8683      260073.86     -200946.72      14213.93      -186732.79      1.5449442      19683               2349 
    534500   2023.2635      258857.1      -200980.25      14160.704     -186819.55      1.5449442      19683               2349 
    535000   1984.2706      253141.83     -200958.86      13887.795     -187071.07      1.5449442      19683               2349 
    535500   1974.2946      256962.55     -201138.33      13817.974     -187320.35      1.5449442      19683               2349 
    536000   1961.3146      256844.59     -201192.58      13727.127     -187465.45      1.5449442      19683               2349 
    536500   2002.7676      259825.66     -201532.35      14017.254     -187515.1       1.5449442      19683               2349 
    537000   1979.5226      250003.25     -201340.13      13854.564     -187485.57      1.5449442      19683               2349 
    537500   2019.3955      259199.94     -201499.98      14133.632     -187366.35      1.5449442      19683               2349 
    538000   2020.9871      250925.59     -201286.91      14144.772     -187142.13      1.5449442      19683               2349 
    538500   2038.9204      238930.93     -201167.99      14270.286     -186897.7       1.5449442      19683               2349 
    539000   2008.145       260802.08     -200824.91      14054.891     -186770.02      1.5449442      19683               2349 
    539500   2052.4529      255279.94     -201115.71      14364.999     -186750.71      1.5449442      19683               2349 
    540000   2036.2201      247706.9      -201049.38      14251.387     -186797.99      1.5449442      19683               2349 
    540500   2011.797       263074.65     -200979.29      14080.45      -186898.84      1.5449442      19683               2349 
    541000   2008.489       255082.26     -201104.03      14057.298     -187046.73      1.5449442      19683               2349 
    541500   1996.3235      255946.21     -201154.53      13972.153     -187182.38      1.5449442      19683               2349 
    542000   1976.3389      259479.21     -201128.34      13832.282     -187296.06      1.5449442      19683               2349 
    542500   2007.5122      255668.2      -201425.07      14050.462     -187374.61      1.5449442      19683               2349 
    543000   1927.2518      262815.78     -200936.59      13488.724     -187447.86      1.5449442      19683               2349 
    543500   1995.1665      263329.15     -201383.74      13964.055     -187419.69      1.5449442      19683               2349 
    544000   2009.9178      264155.16     -201278.99      14067.298     -187211.7       1.5449442      19683               2349 
    544500   2037.2099      263352.34     -201143.08      14258.314     -186884.77      1.5449442      19683               2349 
    545000   2065.2273      259093.66     -201097.29      14454.406     -186642.88      1.5449442      19683               2349 
    545500   2011.1604      255715.59     -200737.27      14075.995     -186661.27      1.5449442      19683               2349 
    546000   2020.1088      256612.66     -200982.25      14138.625     -186843.63      1.5449442      19683               2349 
    546500   1997.5544      266893.34     -201035.7       13980.767     -187054.93      1.5449442      19683               2349 
    547000   1983.7646      267474.54     -201063.99      13884.253     -187179.74      1.5449442      19683               2349 
    547500   1934.8133      246350.76     -200758.7       13541.646     -187217.05      1.5449442      19683               2349 
    548000   2029.9194      252968.12     -201386.91      14207.288     -187179.63      1.5449442      19683               2349 
    548500   2024.4141      251050.04     -201309.88      14168.757     -187141.13      1.5449442      19683               2349 
    549000   1942.2738      262117.63     -200712.47      13593.861     -187118.61      1.5449442      19683               2349 
    549500   1998.6054      261845.35     -201058.5       13988.123     -187070.37      1.5449442      19683               2349 
    550000   2060.9556      266677.82     -201446.59      14424.509     -187022.08      1.5449442      19683               2349 
    550500   2037.8429      259931.54     -201290.72      14262.744     -187027.98      1.5449442      19683               2349 
    551000   1995.5598      264427.19     -201077.76      13966.807     -187110.95      1.5449442      19683               2349 
    551500   1991.7242      253305.63     -201296.86      13939.962     -187356.9       1.5449442      19683               2349 
    552000   1971.1035      252539.5      -201401.93      13795.639     -187606.29      1.5449442      19683               2349 
    552500   1941.7298      261433.52     -201295.55      13590.054     -187705.5       1.5449442      19683               2349 
    553000   1998.9533      253789.79     -201654.85      13990.558     -187664.29      1.5449442      19683               2349 
    553500   1986.0501      249809.01     -201418.31      13900.249     -187518.07      1.5449442      19683               2349 
    554000   1996.6636      264520.6      -201251.01      13974.533     -187276.48      1.5449442      19683               2349 
    554500   2030.9927      258745.95     -201246.25      14214.8       -187031.45      1.5449442      19683               2349 
    555000   2022.1835      264325.9      -201067.95      14153.145     -186914.81      1.5449442      19683               2349 
    555500   1971.4283      263745.02     -200688.01      13797.912     -186890.1       1.5449442      19683               2349 
    556000   2024.4024      261896.13     -201058.13      14168.675     -186889.45      1.5449442      19683               2349 
    556500   2030.7653      262489.19     -201185.1       14213.208     -186971.89      1.5449442      19683               2349 
    557000   1993.5576      254892.97     -201311.92      13952.794     -187359.13      1.5449442      19683               2349 
    557500   1971.5252      273676        -201477.64      13798.591     -187679.05      1.5449442      19683               2349 
    558000   1993.994       256704.28     -201736.27      13955.848     -187780.42      1.5449442      19683               2349 
    558500   1954.3451      262791.05     -201452.88      13678.348     -187774.54      1.5449442      19683               2349 
    559000   1956.7227      260464.98     -201341.14      13694.989     -187646.15      1.5449442      19683               2349 
    559500   1978.2785      271843.81     -201288.29      13845.857     -187442.43      1.5449442      19683               2349 
    560000   2019.3408      263584.45     -201333.95      14133.249     -187200.71      1.5449442      19683               2349 
    560500   2006.4517      265096.51     -201098.56      14043.039     -187055.52      1.5449442      19683               2349 
    561000   2069.001       261683.98     -201478.53      14480.818     -186997.71      1.5449442      19683               2349 
    561500   2033.5667      260182.58     -201259.6       14232.815     -187026.78      1.5449442      19683               2349 
    562000   2015.3489      237496.85     -201200.12      14105.31      -187094.81      1.5449442      19683               2349 
    562500   2020.4799      260767.83     -201324.61      14141.222     -187183.38      1.5449442      19683               2349 
    563000   1993.1753      272445.73     -201221.96      13950.118     -187271.84      1.5449442      19683               2349 
    563500   1998.9272      263645.84     -201322.12      13990.375     -187331.75      1.5449442      19683               2349 
    564000   2007.1763      259617.06     -201412.69      14048.111     -187364.58      1.5449442      19683               2349 
    564500   1994.671       264075.81     -201314.97      13960.587     -187354.38      1.5449442      19683               2349 
    565000   2004.1979      263390.44     -201379.87      14027.265     -187352.61      1.5449442      19683               2349 
    565500   2015.3012      263860.63     -201462.84      14104.976     -187357.86      1.5449442      19683               2349 
    566000   1972.769       255185.9      -201210.32      13807.296     -187403.03      1.5449442      19683               2349 
    566500   2029.6469      253314.12     -201652.32      14205.381     -187446.94      1.5449442      19683               2349 
    567000   1960.3691      262788.46     -201208.93      13720.51      -187488.42      1.5449442      19683               2349 
    567500   1951.7983      253689.55     -201128.8       13660.523     -187468.28      1.5449442      19683               2349 
    568000   1985.3387      261910.41     -201285         13895.27      -187389.73      1.5449442      19683               2349 
    568500   1978.8001      263277.65     -201081.19      13849.507     -187231.68      1.5449442      19683               2349 
    569000   2033.7503      267662.73     -201277.3       14234.101     -187043.2       1.5449442      19683               2349 
    569500   2058.927       277986.47     -201273.94      14410.311     -186863.63      1.5449442      19683               2349 
    570000   2028.0389      267686.91     -200978.78      14194.127     -186784.65      1.5449442      19683               2349 
    570500   1993.0026      247893.33     -200777.2       13948.909     -186828.29      1.5449442      19683               2349 
    571000   2037.3763      269329.32     -201326.59      14259.479     -187067.11      1.5449442      19683               2349 
    571500   2008.7576      246280.14     -201445.5       14059.178     -187386.32      1.5449442      19683               2349 
    572000   1960.1716      258517.64     -201280.42      13719.127     -187561.29      1.5449442      19683               2349 
    572500   1981.709       261325.73     -201435.36      13869.866     -187565.49      1.5449442      19683               2349 
    573000   1963.3168      269963.23     -201222.56      13741.14      -187481.41      1.5449442      19683               2349 
    573500   1998.7302      263753.3      -201341.49      13988.997     -187352.49      1.5449442      19683               2349 
    574000   2019.1422      270415.04     -201324.4       14131.859     -187192.54      1.5449442      19683               2349 
    574500   2012.0089      268659.53     -201124.74      14081.933     -187042.8       1.5449442      19683               2349 
    575000   2058.2881      264496.09     -201295.4       14405.839     -186889.56      1.5449442      19683               2349 
    575500   2027.1274      272485.18     -201034.17      14187.747     -186846.42      1.5449442      19683               2349 
    576000   2028.7985      256776.57     -201067.91      14199.443     -186868.47      1.5449442      19683               2349 
    576500   1975.7284      252186.01     -200901.48      13828.008     -187073.47      1.5449442      19683               2349 
    577000   2004.2047      273523.55     -201408.41      14027.312     -187381.1       1.5449442      19683               2349 
    577500   1968.7647      269401.35     -201370.76      13779.27      -187591.49      1.5449442      19683               2349 
    578000   2004.7047      252994.56     -201656.52      14030.812     -187625.71      1.5449442      19683               2349 
    578500   1976.3762      260979.36     -201338.18      13832.542     -187505.64      1.5449442      19683               2349 
    579000   2020.3631      265559.26     -201406.62      14140.404     -187266.22      1.5449442      19683               2349 
    579500   2009.6168      266745.05     -201119.69      14065.191     -187054.5       1.5449442      19683               2349 
    580000   2034.3324      261140.35     -201172.07      14238.174     -186933.89      1.5449442      19683               2349 
    580500   1983.9486      254679.51     -200849.87      13885.541     -186964.33      1.5449442      19683               2349 
    581000   1994.5331      258823.39     -201027.38      13959.621     -187067.76      1.5449442      19683               2349 
    581500   1993.3539      261248.36     -201281.12      13951.368     -187329.76      1.5449442      19683               2349 
    582000   1966.0229      254148.46     -201475.92      13760.08      -187715.84      1.5449442      19683               2349 
    582500   1979.2921      258076.44     -201743.14      13852.95      -187890.19      1.5449442      19683               2349 
    583000   1981.4707      250792.38     -201732.76      13868.198     -187864.56      1.5449442      19683               2349 
    583500   1951.9588      255694.76     -201362.83      13661.646     -187701.18      1.5449442      19683               2349 
    584000   1989.0744      258079.36     -201419.77      13921.416     -187498.35      1.5449442      19683               2349 
    584500   1996.7658      255280.12     -201323.09      13975.248     -187347.84      1.5449442      19683               2349 
    585000   1983.4774      256030.42     -201131.19      13882.243     -187248.95      1.5449442      19683               2349 
    585500   2006.3572      260401.42     -201206.94      14042.378     -187164.57      1.5449442      19683               2349 
    586000   1999.1923      261618.53     -201154.78      13992.231     -187162.55      1.5449442      19683               2349 
    586500   2016.601       275902.32     -201299.46      14114.073     -187185.39      1.5449442      19683               2349 
    587000   1984.0733      272067.46     -201149.07      13886.414     -187262.66      1.5449442      19683               2349 
    587500   2014.1678      274853.31     -201386.96      14097.044     -187289.92      1.5449442      19683               2349 
    588000   2010.9513      276741.49     -201379.03      14074.531     -187304.5       1.5449442      19683               2349 
    588500   2011.5251      261443.49     -201432.93      14078.547     -187354.38      1.5449442      19683               2349 
    589000   1942.7233      267749.97     -200961.29      13597.008     -187364.28      1.5449442      19683               2349 
    589500   1975.2928      257422.74     -201145.37      13824.96      -187320.42      1.5449442      19683               2349 
    590000   1973.435       269112.91     -201117.06      13811.957     -187305.11      1.5449442      19683               2349 
    590500   2007.7613      264067.3      -201382.23      14052.205     -187330.03      1.5449442      19683               2349 
    591000   1995.9087      259671.26     -201335.78      13969.249     -187366.53      1.5449442      19683               2349 
    591500   2015.8862      257565.51     -201459.1       14109.07      -187350.03      1.5449442      19683               2349 
    592000   2036.0231      254652.3      -201585.85      14250.008     -187335.84      1.5449442      19683               2349 
    592500   2034.9802      255123.65     -201614.12      14242.708     -187371.41      1.5449442      19683               2349 
    593000   2017.646       259532.27     -201599.37      14121.388     -187477.98      1.5449442      19683               2349 
    593500   1970.5376      258911.31     -201420.08      13791.679     -187628.4       1.5449442      19683               2349 
    594000   1991.434       266900.09     -201723.84      13937.931     -187785.91      1.5449442      19683               2349 
    594500   2010.7699      258087.06     -201918.19      14073.262     -187844.93      1.5449442      19683               2349 
    595000   1939.3883      265970.76     -201348.9       13573.666     -187775.23      1.5449442      19683               2349 
    595500   1969.9461      257820.3      -201319.96      13787.538     -187532.42      1.5449442      19683               2349 
    596000   1977.5781      263478.61     -201024.1       13840.955     -187183.14      1.5449442      19683               2349 
    596500   2003.0302      269583.78     -200941.67      14019.092     -186922.58      1.5449442      19683               2349 
    597000   2034.6691      269806.38     -201073.67      14240.531     -186833.14      1.5449442      19683               2349 
    597500   2037.9795      270077.49     -201119.33      14263.7       -186855.62      1.5449442      19683               2349 
    598000   2013.4127      266968.21     -201028.92      14091.759     -186937.16      1.5449442      19683               2349 
    598500   2010.3952      253615.84     -201168.58      14070.639     -187097.94      1.5449442      19683               2349 
    599000   1992.4289      263594.82     -201243.52      13944.894     -187298.63      1.5449442      19683               2349 
    599500   2003.2505      260427.28     -201474.68      14020.634     -187454.05      1.5449442      19683               2349 
    600000   1964.8726      259055.61     -201321.71      13752.029     -187569.68      1.5449442      19683               2349 
    600500   1981.2096      255586.39     -201441.39      13866.371     -187575.02      1.5449442      19683               2349 
    601000   1986.0654      252460.2      -201417.24      13900.356     -187516.88      1.5449442      19683               2349 
    601500   1965.5093      264230.54     -201218.39      13756.485     -187461.9       1.5449442      19683               2349 
    602000   1997.3865      252758.03     -201402.03      13979.593     -187422.43      1.5449442      19683               2349 
    602500   1991.788       255120.07     -201302.21      13940.409     -187361.8       1.5449442      19683               2349 
    603000   2007.8072      254459.13     -201325.07      14052.526     -187272.54      1.5449442      19683               2349 
    603500   1969.5472      268828.27     -200949.62      13784.747     -187164.88      1.5449442      19683               2349 
    604000   2049.8207      263910.04     -201355.92      14346.576     -187009.35      1.5449442      19683               2349 
    604500   2011.131       263386.27     -200935.76      14075.789     -186859.97      1.5449442      19683               2349 
    605000   2021.5143      264558.45     -200913.03      14148.461     -186764.57      1.5449442      19683               2349 
    605500   2017.3565      253304.84     -200887.42      14119.361     -186768.06      1.5449442      19683               2349 
    606000   2006.0242      266312.21     -200989.93      14040.047     -186949.88      1.5449442      19683               2349 
    606500   1969.8088      252600.93     -201057.35      13786.578     -187270.77      1.5449442      19683               2349 
    607000   1964.0647      262876.14     -201209.48      13746.375     -187463.1       1.5449442      19683               2349 
    607500   1930.8899      250759.5      -201039.67      13514.187     -187525.48      1.5449442      19683               2349 
    608000   1963.1283      264364.18     -201208.72      13739.821     -187468.9       1.5449442      19683               2349 
    608500   1968.2525      265578.43     -201079.56      13775.685     -187303.87      1.5449442      19683               2349 
    609000   2009.7176      260931.34     -201117.98      14065.897     -187052.08      1.5449442      19683               2349 
    609500   2048.7954      253123.39     -201181.14      14339.4       -186841.74      1.5449442      19683               2349 
    610000   2059.0442      259320.22     -201213.06      14411.131     -186801.93      1.5449442      19683               2349 
    610500   2032.4365      259747.88     -201118.94      14224.905     -186894.04      1.5449442      19683               2349 
    611000   2015.96        258965.48     -201096.84      14109.587     -186987.26      1.5449442      19683               2349 
    611500   1998.5518      269793.63     -201054.88      13987.748     -187067.13      1.5449442      19683               2349 
    612000   2010.9029      257234.22     -201234.9       14074.192     -187160.71      1.5449442      19683               2349 
    612500   1976.3135      264047.23     -201062.36      13832.104     -187230.26      1.5449442      19683               2349 
    613000   2022.8345      253484.33     -201409.67      14157.702     -187251.97      1.5449442      19683               2349 
    613500   1961.4918      264469.03     -200978.07      13728.367     -187249.7       1.5449442      19683               2349 
    614000   1998.6288      260971.14     -201192.29      13988.287     -187204.01      1.5449442      19683               2349 
    614500   2035.5766      257344.84     -201313.06      14246.882     -187066.18      1.5449442      19683               2349 
    615000   2029.2576      261927.32     -201110.03      14202.656     -186907.37      1.5449442      19683               2349 
    615500   2049.2579      257567.7      -201046.2       14342.637     -186703.56      1.5449442      19683               2349 
    616000   2070.0393      265254.74     -201073.56      14488.085     -186585.47      1.5449442      19683               2349 
    616500   2055.1162      263762.18     -201071.11      14383.639     -186687.47      1.5449442      19683               2349 
    617000   2021.5792      265455.34     -201166.11      14148.916     -187017.19      1.5449442      19683               2349 
    617500   1979.7041      257847.54     -201133.52      13855.834     -187277.69      1.5449442      19683               2349 
    618000   1928.4336      266979.86     -200899.16      13496.995     -187402.17      1.5449442      19683               2349 
    618500   2000.3358      263581.79     -201337.6       14000.234     -187337.37      1.5449442      19683               2349 
    619000   2009.6781      256137.91     -201318.35      14065.621     -187252.73      1.5449442      19683               2349 
    619500   1976.666       264322.69     -200974.03      13834.571     -187139.46      1.5449442      19683               2349 
    620000   2005.7638      263908.67     -201049.29      14038.225     -187011.06      1.5449442      19683               2349 
    620500   1964.9844      267349.95     -200552.1       13752.812     -186799.28      1.5449442      19683               2349 
    621000   2018.5575      264998.45     -200658.41      14127.767     -186530.64      1.5449442      19683               2349 
    621500   2081.3134      275841.51     -200906.67      14566.992     -186339.68      1.5449442      19683               2349 
    622000   2060.443       278240.68     -200818.29      14420.921     -186397.36      1.5449442      19683               2349 
    622500   2068.3737      263553.84     -201250.98      14476.428     -186774.55      1.5449442      19683               2349 
    623000   2001.0227      262342.79     -201197.39      14005.042     -187192.34      1.5449442      19683               2349 
    623500   1990.7457      263773.04     -201213.01      13933.114     -187279.9       1.5449442      19683               2349 
    624000   2034.8884      266224.24     -201491.22      14242.066     -187249.16      1.5449442      19683               2349 
    624500   1998.0411      260728.33     -201195.66      13984.174     -187211.49      1.5449442      19683               2349 
    625000   1981.6014      263225.61     -200960.92      13869.113     -187091.81      1.5449442      19683               2349 
    625500   2012.1951      269132.9      -201052.69      14083.237     -186969.46      1.5449442      19683               2349 
    626000   2009.6217      274022.68     -200975.33      14065.226     -186910.1       1.5449442      19683               2349 
    626500   1996.0031      269344.01     -200863.19      13969.91      -186893.28      1.5449442      19683               2349 
    627000   2010.8752      258798.17     -201054.44      14073.999     -186980.44      1.5449442      19683               2349 
    627500   1971.692       258423.73     -201056.85      13799.758     -187257.1       1.5449442      19683               2349 
    628000   1929.6101      267815.6      -200984.85      13505.229     -187479.62      1.5449442      19683               2349 
    628500   1995.0984      254853.25     -201527.97      13963.578     -187564.4       1.5449442      19683               2349 
    629000   1970.4838      255418.48     -201402.37      13791.302     -187611.07      1.5449442      19683               2349 
    629500   1985.1791      255142.47     -201458.51      13894.154     -187564.35      1.5449442      19683               2349 
    630000   1999.9665      263429.59     -201371.82      13997.65      -187374.17      1.5449442      19683               2349 
    630500   2012.8917      259772.98     -201134.34      14088.112     -187046.23      1.5449442      19683               2349 
    631000   1987.0142      275765.04     -200616.27      13906.997     -186709.28      1.5449442      19683               2349 
    631500   2019.6592      266572.07     -200743.84      14135.478     -186608.36      1.5449442      19683               2349 
    632000   2067.1605      255107.22     -201107.66      14467.936     -186639.72      1.5449442      19683               2349 
    632500   2050.0382      258127.63     -201150.36      14348.099     -186802.26      1.5449442      19683               2349 
    633000   2028.5924      256126.62     -201225.48      14198.001     -187027.48      1.5449442      19683               2349 
    633500   1970.7959      266454.75     -201061.02      13793.486     -187267.54      1.5449442      19683               2349 
    634000   1974.0714      258541.21     -201233.69      13816.412     -187417.28      1.5449442      19683               2349 
    634500   1993.643       256280.69     -201423.53      13953.392     -187470.14      1.5449442      19683               2349 
    635000   2026.2493      260152.91     -201635.52      14181.601     -187453.92      1.5449442      19683               2349 
    635500   1950.1417      266077.96     -201037.47      13648.929     -187388.54      1.5449442      19683               2349 
    636000   1953.5825      249847.39     -200836.31      13673.01      -187163.3       1.5449442      19683               2349 
    636500   2013.6013      260321.38     -200924.51      14093.078     -186831.44      1.5449442      19683               2349 
    637000   2021.8941      259843.06     -200729.62      14151.12      -186578.5       1.5449442      19683               2349 
    637500   2047.4582      272734.95     -200877.07      14330.041     -186547.03      1.5449442      19683               2349 
    638000   1991.9018      270901.38     -200596.83      13941.205     -186655.63      1.5449442      19683               2349 
    638500   2007.2626      271949.09     -200867.59      14048.715     -186818.88      1.5449442      19683               2349 
    639000   2038.9216      262867.26     -201297.86      14270.294     -187027.56      1.5449442      19683               2349 
    639500   1986.2802      267651.85     -201079.9       13901.86      -187178.04      1.5449442      19683               2349 
    640000   2035.3465      243678.12     -201509.99      14245.272     -187264.72      1.5449442      19683               2349 
    640500   2001.0789      270228.36     -201372.31      14005.435     -187366.88      1.5449442      19683               2349 
    641000   1971.6862      249189.01     -201257.86      13799.718     -187458.14      1.5449442      19683               2349 
    641500   1980.4439      255742.46     -201331.07      13861.012     -187470.05      1.5449442      19683               2349 
    642000   1959.1479      254658.04     -201213.12      13711.963     -187501.16      1.5449442      19683               2349 
    642500   2002.1999      251849.57     -201452.48      14013.281     -187439.2       1.5449442      19683               2349 
    643000   1963.6027      269027.05     -201042.64      13743.141     -187299.5       1.5449442      19683               2349 
    643500   2023.4206      266462.56     -201218.22      14161.803     -187056.42      1.5449442      19683               2349 
    644000   2025.8111      252713.46     -200992.77      14178.534     -186814.24      1.5449442      19683               2349 
    644500   2036.6999      263608.82     -200890.27      14254.745     -186635.53      1.5449442      19683               2349 
    645000   2011.2555      267356.67     -200648.51      14076.66      -186571.85      1.5449442      19683               2349 
    645500   2051.4402      265555.69     -200986.78      14357.911     -186628.87      1.5449442      19683               2349 
    646000   1990.5168      269611.38     -200778.68      13931.511     -186847.17      1.5449442      19683               2349 
    646500   1965.8333      262303.59     -200905.57      13758.753     -187146.82      1.5449442      19683               2349 
    647000   1970.8432      263396.36     -201106.85      13793.817     -187313.04      1.5449442      19683               2349 
    647500   1972.3651      255100.4      -201153.97      13804.469     -187349.51      1.5449442      19683               2349 
    648000   1995.4768      255897.02     -201297         13966.226     -187330.77      1.5449442      19683               2349 
    648500   1970.9793      262647.99     -201083.72      13794.77      -187288.96      1.5449442      19683               2349 
    649000   2003.3585      258123.27     -201218.2       14021.39      -187196.81      1.5449442      19683               2349 
    649500   1992.0061      258693.05     -201053.74      13941.935     -187111.8       1.5449442      19683               2349 
    650000   2048.1895      259547.53     -201275.13      14335.159     -186939.97      1.5449442      19683               2349 
    650500   2047.5293      268901.98     -201007.34      14330.539     -186676.8       1.5449442      19683               2349 
    651000   2046.3177      264121.61     -200729.92      14322.059     -186407.87      1.5449442      19683               2349 
    651500   2073.8852      263867.43     -200821.94      14515.002     -186306.94      1.5449442      19683               2349 
    652000   2061.1707      260346.57     -200903.21      14426.014     -186477.2       1.5449442      19683               2349 
    652500   2027.9671      268513.49     -201080.49      14193.624     -186886.87      1.5449442      19683               2349 
    653000   1974.8424      255215.5      -200926.14      13821.807     -187104.34      1.5449442      19683               2349 
    653500   1969.5942      264750.55     -201011.65      13785.076     -187226.57      1.5449442      19683               2349 
    654000   1921.3412      249141.68     -200784.91      13447.356     -187337.55      1.5449442      19683               2349 
    654500   2003.7677      258368.97     -201465.8       14024.254     -187441.54      1.5449442      19683               2349 
    655000   2011.7836      258140.53     -201571.75      14080.356     -187491.39      1.5449442      19683               2349 
    655500   1993.237       262306.77     -201413.67      13950.55      -187463.12      1.5449442      19683               2349 
    656000   1974.5727      257428.52     -201214.22      13819.92      -187394.3       1.5449442      19683               2349 
    656500   1992.0512      268472.05     -201194.75      13942.251     -187252.5       1.5449442      19683               2349 
    657000   2011.7613      273452.09     -201071.67      14080.201     -186991.47      1.5449442      19683               2349 
    657500   2040.6555      260500.33     -201020.25      14282.429     -186737.82      1.5449442      19683               2349 
    658000   2045.7495      257809.39     -200967.45      14318.082     -186649.37      1.5449442      19683               2349 
    658500   2001.0286      271472.23     -200736.64      14005.083     -186731.56      1.5449442      19683               2349 
    659000   2021.369       258021.18     -201148.15      14147.444     -187000.71      1.5449442      19683               2349 
    659500   1997.5358      270070.83     -201306.65      13980.637     -187326.01      1.5449442      19683               2349 
    660000   1951.9992      258469.8      -201109.19      13661.929     -187447.26      1.5449442      19683               2349 
    660500   2015.2997      253985.22     -201551.62      14104.966     -187446.65      1.5449442      19683               2349 
    661000   1964.4243      262814.69     -201189.01      13748.892     -187440.12      1.5449442      19683               2349 
    661500   2002.2296      254583.11     -201466.57      14013.489     -187453.08      1.5449442      19683               2349 
    662000   2020.0378      264061.63     -201617.1       14138.127     -187478.97      1.5449442      19683               2349 
    662500   1981.7622      254887.91     -201418.44      13870.239     -187548.2       1.5449442      19683               2349 
    663000   2003.5466      259678.4      -201677.48      14022.706     -187654.78      1.5449442      19683               2349 
    663500   1975.9692      249750.86     -201632.17      13829.694     -187802.48      1.5449442      19683               2349 
    664000   1951.5182      253669.58     -201650.49      13658.563     -187991.93      1.5449442      19683               2349 
    664500   1937.0914      260800.89     -201619.8       13557.59      -188062.21      1.5449442      19683               2349 
    665000   1935.8597      259417.97     -201549.63      13548.97      -188000.66      1.5449442      19683               2349 
    665500   2007.5984      256373.06     -201797.94      14051.065     -187746.87      1.5449442      19683               2349 
    666000   2030.6126      261441.09     -201591.75      14212.14      -187379.61      1.5449442      19683               2349 
    666500   2048.0814      257985.68     -201508.04      14334.403     -187173.64      1.5449442      19683               2349 
    667000   2039.7228      246914.35     -201393.08      14275.902     -187117.18      1.5449442      19683               2349 
    667500   2023.4951      252322.96     -201361.61      14162.325     -187199.28      1.5449442      19683               2349 
    668000   1959.0908      268054.28     -201045.67      13711.563     -187334.11      1.5449442      19683               2349 
    668500   2011.0646      258293.47     -201556.26      14075.325     -187480.94      1.5449442      19683               2349 
    669000   2024.0073      261724.3      -201747.08      14165.91      -187581.17      1.5449442      19683               2349 
    669500   2011.3016      261558.48     -201697.43      14076.983     -187620.45      1.5449442      19683               2349 
    670000   2002.9931      269212.69     -201600.37      14018.832     -187581.54      1.5449442      19683               2349 
    670500   1985.3831      266635.49     -201444.54      13895.581     -187548.96      1.5449442      19683               2349 
    671000   1976.4313      260771.44     -201325.41      13832.928     -187492.48      1.5449442      19683               2349 
    671500   2039.0434      268125.43     -201695.96      14271.147     -187424.81      1.5449442      19683               2349 
    672000   1966.3786      279943.17     -201161.79      13762.57      -187399.22      1.5449442      19683               2349 
    672500   1993.818       266585.29     -201324.58      13954.616     -187369.96      1.5449442      19683               2349 
    673000   2021.8471      263048.68     -201513.97      14150.791     -187363.18      1.5449442      19683               2349 
    673500   2029.324       264309.26     -201683.27      14203.121     -187480.15      1.5449442      19683               2349 
    674000   1984.3432      256569.16     -201595.5       13888.303     -187707.19      1.5449442      19683               2349 
    674500   1953.2309      265802.42     -201581.64      13670.55      -187911.09      1.5449442      19683               2349 
    675000   1964.0744      257578.59     -201716.9       13746.443     -187970.46      1.5449442      19683               2349 
    675500   1968.756       257712.61     -201688.73      13779.209     -187909.53      1.5449442      19683               2349 
    676000   2005.9578      254938.4      -201780.25      14039.582     -187740.67      1.5449442      19683               2349 
    676500   2028.0058      267034.09     -201684         14193.895     -187490.11      1.5449442      19683               2349 
    677000   2032.2862      258111.53     -201512.65      14223.854     -187288.8       1.5449442      19683               2349 
    677500   2046.0886      266721.56     -201485.27      14320.456     -187164.82      1.5449442      19683               2349 
    678000   2078.3856      264462.09     -201698.41      14546.5       -187151.91      1.5449442      19683               2349 
    678500   2000.0184      257567.2      -201268.03      13998.013     -187270.02      1.5449442      19683               2349 
    679000   2045.8134      269658.05     -201722.56      14318.53      -187404.03      1.5449442      19683               2349 
    679500   2006.4555      261094.72     -201592.89      14043.066     -187549.83      1.5449442      19683               2349 
    680000   2052.4855      259266.09     -201987.28      14365.227     -187622.05      1.5449442      19683               2349 
    680500   2008.9247      259340.73     -201733.96      14060.347     -187673.62      1.5449442      19683               2349 
    681000   2016.9466      263004.6      -201846.62      14116.492     -187730.13      1.5449442      19683               2349 
    681500   1964.5826      265020.56     -201525.59      13750         -187775.59      1.5449442      19683               2349 
    682000   1991.3582      259297.24     -201730.01      13937.401     -187792.61      1.5449442      19683               2349 
    682500   1976.1162      264215.52     -201595.79      13830.723     -187765.07      1.5449442      19683               2349 
    683000   1991.4857      269565.38     -201663.19      13938.293     -187724.89      1.5449442      19683               2349 
    683500   2035.011       260995.1      -201930.87      14242.924     -187687.95      1.5449442      19683               2349 
    684000   1989.5042      271798.28     -201565.18      13924.424     -187640.75      1.5449442      19683               2349 
    684500   1973.06        264336.16     -201361.92      13809.333     -187552.59      1.5449442      19683               2349 
    685000   2025.0271      259751.3      -201537.02      14173.048     -187363.97      1.5449442      19683               2349 
    685500   1997.2748      280122.25     -201172.01      13978.811     -187193.2       1.5449442      19683               2349 
    686000   2072.8825      273012.33     -201599.45      14507.985     -187091.47      1.5449442      19683               2349 
    686500   2050.8687      264029.64     -201516.49      14353.911     -187162.58      1.5449442      19683               2349 
    687000   2005.4218      256158.18     -201449.8       14035.831     -187413.96      1.5449442      19683               2349 
    687500   1975.0973      261294.69     -201539.25      13823.591     -187715.66      1.5449442      19683               2349 
    688000   1979.6491      269998.86     -201759.69      13855.449     -187904.24      1.5449442      19683               2349 
    688500   1957.1588      258809.03     -201667.17      13698.041     -187969.13      1.5449442      19683               2349 
    689000   1971.5815      253329.04     -201740.46      13798.984     -187941.48      1.5449442      19683               2349 
    689500   1977.0592      260101.15     -201697.07      13837.323     -187859.75      1.5449442      19683               2349 
    690000   2021.423       264668.6      -201865.99      14147.822     -187718.17      1.5449442      19683               2349 
    690500   2007.0188      259089.52     -201602.1       14047.008     -187555.1       1.5449442      19683               2349 
    691000   1998.0768      266271.74     -201400.41      13984.423     -187415.98      1.5449442      19683               2349 
    691500   2010.7432      253370.67     -201323.39      14073.075     -187250.32      1.5449442      19683               2349 
    692000   2062.2704      264476.61     -201325.65      14433.711     -186891.94      1.5449442      19683               2349 
    692500   2116.0766      265394.47     -201394.23      14810.298     -186583.93      1.5449442      19683               2349 
    693000   2055.9549      270362.98     -200940.4       14389.509     -186550.89      1.5449442      19683               2349 
    693500   2075.9698      273397.05     -201312.94      14529.592     -186783.35      1.5449442      19683               2349 
    694000   2016.487       267963.62     -201200.84      14113.275     -187087.56      1.5449442      19683               2349 
    694500   2043.5021      268468.11     -201519.18      14302.352     -187216.83      1.5449442      19683               2349 
    695000   2050.8405      249129.81     -201725.24      14353.714     -187371.53      1.5449442      19683               2349 
    695500   2007.6974      265721.58     -201594.03      14051.758     -187542.28      1.5449442      19683               2349 
    696000   2002.6309      271539.51     -201691.63      14016.298     -187675.33      1.5449442      19683               2349 
    696500   1985.8801      259130.28     -201707.95      13899.06      -187808.89      1.5449442      19683               2349 
    697000   1987.773       260853.87     -201749.02      13912.308     -187836.72      1.5449442      19683               2349 
    697500   1982.2687      257066.74     -201681.02      13873.783     -187807.24      1.5449442      19683               2349 
    698000   1971.503       260675.98     -201557.27      13798.435     -187758.84      1.5449442      19683               2349 
    698500   2014.4335      260194.83     -201706.59      14098.903     -187607.69      1.5449442      19683               2349 
    699000   2031.894       259658.3      -201567.87      14221.108     -187346.77      1.5449442      19683               2349 
    699500   2063.9563      264956.49     -201546.62      14445.511     -187101.11      1.5449442      19683               2349 
    700000   2080.6608      264594.04     -201591.26      14562.424     -187028.83      1.5449442      19683               2349 
    700500   2070.8217      257964.37     -201643.52      14493.561     -187149.96      1.5449442      19683               2349 
    701000   1996.7344      264471.81     -201412.26      13975.028     -187437.23      1.5449442      19683               2349 
    701500   2037.0335      264277.45     -201955.92      14257.079     -187698.84      1.5449442      19683               2349 
    702000   2028.5742      260534.86     -201994.34      14197.873     -187796.46      1.5449442      19683               2349 
    702500   1999.5595      261996.53     -201816.16      13994.801     -187821.36      1.5449442      19683               2349 
    703000   1956.7923      264317.35     -201483.67      13695.476     -187788.19      1.5449442      19683               2349 
    703500   2026.6358      248781.12     -201912.74      14184.306     -187728.44      1.5449442      19683               2349 
    704000   2000.0791      258868.67     -201588.42      13998.437     -187589.98      1.5449442      19683               2349 
    704500   2024.0927      281009.4      -201579.24      14166.507     -187412.73      1.5449442      19683               2349 
    705000   2007.9542      268992.28     -201259.28      14053.555     -187205.73      1.5449442      19683               2349 
    705500   2024.8749      271745.81     -201151.79      14171.982     -186979.81      1.5449442      19683               2349 
    706000   1996.144       275808.52     -200834.31      13970.896     -186863.41      1.5449442      19683               2349 
    706500   2040.2263      268305.53     -201156.53      14279.426     -186877.11      1.5449442      19683               2349 
    707000   2040.4668      258366.5      -201389.53      14281.109     -187108.42      1.5449442      19683               2349 
    707500   2012.5661      264286.92     -201561.69      14085.834     -187475.86      1.5449442      19683               2349 
    708000   1968.0173      273624.84     -201467.49      13774.039     -187693.45      1.5449442      19683               2349 
    708500   1961.3546      267033.92     -201461.4       13727.407     -187733.99      1.5449442      19683               2349 
    709000   1971.0306      259577.57     -201568.85      13795.129     -187773.72      1.5449442      19683               2349 
    709500   2009.5725      270653.84     -201868.71      14064.881     -187803.83      1.5449442      19683               2349 
    710000   2018.6589      256883.23     -202025.8       14128.476     -187897.33      1.5449442      19683               2349 
    710500   1965.2033      264019.24     -201803.6       13754.344     -188049.25      1.5449442      19683               2349 
    711000   1970.0954      250766.01     -201945.16      13788.584     -188156.58      1.5449442      19683               2349 
    711500   1949.4843      259023.96     -201806.86      13644.328     -188162.53      1.5449442      19683               2349 
    712000   1964.3472      261471.8      -201704.01      13748.352     -187955.66      1.5449442      19683               2349 
    712500   1957.5646      266424.13     -201269.19      13700.881     -187568.31      1.5449442      19683               2349 
    713000   2000.8868      273082.88     -201312.14      14004.09      -187308.05      1.5449442      19683               2349 
    713500   2039.3374      267339.51     -201486.97      14273.204     -187213.77      1.5449442      19683               2349 
    714000   1983.6987      264202.27     -201145.93      13883.792     -187262.14      1.5449442      19683               2349 
    714500   2022.5417      263971.42     -201542.72      14155.652     -187387.07      1.5449442      19683               2349 
    715000   2023.5554      267402.67     -201750.57      14162.747     -187587.82      1.5449442      19683               2349 
    715500   1952.2365      262497.6      -201446.28      13663.59      -187782.69      1.5449442      19683               2349 
    716000   1975.0512      252829.79     -201762.09      13823.269     -187938.82      1.5449442      19683               2349 
    716500   1969.3356      258526.96     -201764.64      13783.266     -187981.38      1.5449442      19683               2349 
    717000   1947.3824      249315.12     -201585.35      13629.617     -187955.74      1.5449442      19683               2349 
    717500   2009.8206      260113.2      -201944.62      14066.618     -187878         1.5449442      19683               2349 
    718000   1961.8734      257185.57     -201526.98      13731.038     -187795.94      1.5449442      19683               2349 
    718500   1978.0439      267856.68     -201505         13844.214     -187660.79      1.5449442      19683               2349 
    719000   2028.9156      254782.99     -201746.28      14200.263     -187546.02      1.5449442      19683               2349 
    719500   1993.6384      257777.31     -201449.81      13953.36      -187496.45      1.5449442      19683               2349 
    720000   1984.5172      264536.2      -201342.76      13889.521     -187453.24      1.5449442      19683               2349 
    720500   2018.3531      250129.7      -201618.92      14126.336     -187492.59      1.5449442      19683               2349 
    721000   1972.5905      266094.65     -201378.08      13806.047     -187572.03      1.5449442      19683               2349 
    721500   2015.5241      250156.93     -201794.09      14106.537     -187687.55      1.5449442      19683               2349 
    722000   1952.634       261335.54     -201693.01      13666.372     -188026.63      1.5449442      19683               2349 
    722500   1939.6894      249195.82     -201890.21      13575.774     -188314.44      1.5449442      19683               2349 
    723000   1972.2633      257361.3      -202163.89      13803.756     -188360.13      1.5449442      19683               2349 
    723500   1938.9486      262836.37     -201816.26      13570.589     -188245.67      1.5449442      19683               2349 
    724000   2010.797       268658.54     -202082.1       14073.452     -188008.65      1.5449442      19683               2349 
    724500   1987.3777      271443.83     -201662.09      13909.541     -187752.55      1.5449442      19683               2349 
    725000   2024.4768      259404.09     -201770.62      14169.195     -187601.43      1.5449442      19683               2349 
    725500   1991.8586      268555.31     -201502.24      13940.903     -187561.34      1.5449442      19683               2349 
    726000   2038.4143      264986.2      -201777.6       14266.743     -187510.86      1.5449442      19683               2349 
    726500   2001.2621      256441.22     -201498.37      14006.718     -187491.66      1.5449442      19683               2349 
    727000   2036.5063      256326.14     -201732.51      14253.389     -187479.12      1.5449442      19683               2349 
    727500   1973.0015      268808.86     -201292.23      13808.923     -187483.3       1.5449442      19683               2349 
    728000   1991.0949      263806.1      -201444.76      13935.558     -187509.2       1.5449442      19683               2349 
    728500   2015.3399      254178.81     -201699.49      14105.247     -187594.24      1.5449442      19683               2349 
    729000   1995.2649      263968.23     -201676.37      13964.743     -187711.63      1.5449442      19683               2349 
    729500   1976.557       264592.52     -201692.74      13833.808     -187858.93      1.5449442      19683               2349 
    730000   2012.4502      261822.53     -202072.58      14085.022     -187987.55      1.5449442      19683               2349 
    730500   1966.1175      260928.92     -201806.25      13760.742     -188045.51      1.5449442      19683               2349 
    731000   1950.9309      260229.84     -201699.05      13654.452     -188044.59      1.5449442      19683               2349 
    731500   1971.3267      258219.79     -201695.43      13797.202     -187898.23      1.5449442      19683               2349 
    732000   1992.0431      252347.55     -201567.35      13942.194     -187625.16      1.5449442      19683               2349 
    732500   2057.526       258611.94     -201721.5       14400.505     -187321         1.5449442      19683               2349 
    733000   2039.499       263704.75     -201434.43      14274.335     -187160.09      1.5449442      19683               2349 
    733500   2013.0676      274431.61     -201215.75      14089.343     -187126.41      1.5449442      19683               2349 
    734000   2034.5652      273132.39     -201387.63      14239.804     -187147.83      1.5449442      19683               2349 
    734500   2059.7746      256304.26     -201686.76      14416.243     -187270.51      1.5449442      19683               2349 
    735000   1995.8752      262111.93     -201424.13      13969.015     -187455.11      1.5449442      19683               2349 
    735500   1971.5565      261339.68     -201385.88      13798.81      -187587.07      1.5449442      19683               2349 
    736000   2019.3885      259617.44     -201738.54      14133.583     -187604.96      1.5449442      19683               2349 
    736500   1996.0013      262665.05     -201585.37      13969.897     -187615.47      1.5449442      19683               2349 
    737000   2056.2113      255460.3      -202041.62      14391.304     -187650.32      1.5449442      19683               2349 
    737500   1971.6798      267222.07     -201508.54      13799.672     -187708.87      1.5449442      19683               2349 
    738000   1986.7069      268001.64     -201660.92      13904.846     -187756.08      1.5449442      19683               2349 
    738500   1958.2533      272429.2      -201512.96      13705.701     -187807.26      1.5449442      19683               2349 
    739000   1961.7413      264558.78     -201494.57      13730.114     -187764.46      1.5449442      19683               2349 
    739500   2002.5406      256398        -201631.22      14015.665     -187615.56      1.5449442      19683               2349 
    740000   1976.8633      256847.5      -201236.13      13835.952     -187400.18      1.5449442      19683               2349 
    740500   2018.5269      268169.52     -201273.7       14127.553     -187146.15      1.5449442      19683               2349 
    741000   2031.0702      259735.01     -201212.32      14215.343     -186996.97      1.5449442      19683               2349 
    741500   2058.1563      254765.29     -201399.5       14404.916     -186994.59      1.5449442      19683               2349 
    742000   2005.6356      260843.31     -201224.62      14037.327     -187187.29      1.5449442      19683               2349 
    742500   2037.5424      248474.58     -201771.06      14260.641     -187510.42      1.5449442      19683               2349 
    743000   2016.9214      252013.85     -201847.45      14116.316     -187731.14      1.5449442      19683               2349 
    743500   1983.498       239298.44     -201714.63      13882.387     -187832.24      1.5449442      19683               2349 
    744000   1969.709       262313.68     -201683.23      13785.879     -187897.35      1.5449442      19683               2349 
    744500   1989.8585      254869.89     -201768.22      13926.904     -187841.32      1.5449442      19683               2349 
    745000   2004.9801      265239.73     -201792.21      14032.739     -187759.47      1.5449442      19683               2349 
    745500   2001.3467      256594.17     -201654.74      14007.309     -187647.43      1.5449442      19683               2349 
    746000   2020.4407      255495.16     -201635.81      14140.947     -187494.86      1.5449442      19683               2349 
    746500   2028.4742      269515.86     -201592.88      14197.174     -187395.7       1.5449442      19683               2349 
    747000   2028.4976      255480.05     -201494.85      14197.337     -187297.51      1.5449442      19683               2349 
    747500   2029.2257      259291.11     -201404.36      14202.433     -187201.93      1.5449442      19683               2349 
    748000   2042.5466      265966.15     -201457.07      14295.665     -187161.4       1.5449442      19683               2349 
    748500   2004.9733      258743.02     -201248.18      14032.692     -187215.49      1.5449442      19683               2349 
    749000   2066.6887      248326.08     -201889.96      14464.634     -187425.32      1.5449442      19683               2349 
    749500   2023.3405      265059.05     -201856.19      14161.243     -187694.95      1.5449442      19683               2349 
    750000   1946.9172      271171.29     -201486.85      13626.361     -187860.48      1.5449442      19683               2349 
    750500   1966.4325      265004.52     -201636.6       13762.947     -187873.66      1.5449442      19683               2349 
    751000   2040.5306      265197.07     -202054.33      14281.555     -187772.77      1.5449442      19683               2349 
    751500   2002.6623      272356.7      -201661.71      14016.517     -187645.19      1.5449442      19683               2349 
    752000   2022.5786      255189.48     -201679.61      14155.91      -187523.7       1.5449442      19683               2349 
    752500   2004.2284      255014.01     -201360.82      14027.478     -187333.34      1.5449442      19683               2349 
    753000   2054.2286      261283.72     -201435.4       14377.427     -187057.97      1.5449442      19683               2349 
    753500   2059.8379      271736.31     -201206.24      14416.686     -186789.56      1.5449442      19683               2349 
    754000   2116.9406      263363.04     -201535.76      14816.344     -186719.42      1.5449442      19683               2349 
    754500   2057.2742      268005.31     -201319.03      14398.743     -186920.29      1.5449442      19683               2349 
    755000   2073.8265      263947.79     -201830.79      14514.591     -187316.19      1.5449442      19683               2349 
    755500   1995.7432      259971.68     -201492.05      13968.091     -187523.96      1.5449442      19683               2349 
    756000   2028.6746      258384.18     -201827.23      14198.576     -187628.65      1.5449442      19683               2349 
    756500   2009.4646      251861.58     -201841.41      14064.126     -187777.28      1.5449442      19683               2349 
    757000   2014.789       258701.92     -202004.83      14101.391     -187903.44      1.5449442      19683               2349 
    757500   1978.1663      269181.87     -201826         13845.071     -187980.93      1.5449442      19683               2349 
    758000   1996.6068      259916.62     -201965.94      13974.136     -187991.8       1.5449442      19683               2349 
    758500   1994.5911      266770.06     -201900.74      13960.027     -187940.71      1.5449442      19683               2349 
    759000   1989.19        266263.02     -201716.33      13922.225     -187794.1       1.5449442      19683               2349 
    759500   1961.7321      271775.95     -201319.79      13730.049     -187589.74      1.5449442      19683               2349 
    760000   2012.8087      260895.93     -201426.94      14087.531     -187339.41      1.5449442      19683               2349 
    760500   2027.8379      259695.63     -201340.92      14192.72      -187148.2       1.5449442      19683               2349 
    761000   2049.7877      265202.37     -201431.8       14346.345     -187085.45      1.5449442      19683               2349 
    761500   2041.0028      258810.42     -201500.61      14284.86      -187215.75      1.5449442      19683               2349 
    762000   1999.1771      253696.79     -201605.02      13992.125     -187612.89      1.5449442      19683               2349 
    762500   2003.9688      264829.94     -201890.58      14025.662     -187864.92      1.5449442      19683               2349 
    763000   1982.7068      272489.09     -201817.93      13876.85      -187941.08      1.5449442      19683               2349 
    763500   1971.7286      265771.05     -201729.47      13800.014     -187929.45      1.5449442      19683               2349 
    764000   1971.7624      259693.68     -201652.27      13800.251     -187852.02      1.5449442      19683               2349 
    764500   2012.1742      253431.87     -201781.4       14083.09      -187698.31      1.5449442      19683               2349 
    765000   2014.051       269581.58     -201602.5       14096.226     -187506.27      1.5449442      19683               2349 
    765500   2074.2204      270407.17     -201825.85      14517.348     -187308.5       1.5449442      19683               2349 
    766000   2046.4803      267843.15     -201464.42      14323.197     -187141.22      1.5449442      19683               2349 
    766500   1994.4977      273347.75     -201020.44      13959.374     -187061.07      1.5449442      19683               2349 
    767000   2028.8628      267209.02     -201316.27      14199.893     -187116.38      1.5449442      19683               2349 
    767500   2020.025       282836.8      -201633.96      14138.038     -187495.92      1.5449442      19683               2349 
    768000   2013.7824      257616.35     -201925.54      14094.346     -187831.19      1.5449442      19683               2349 
    768500   1951.3146      266866.42     -201627.82      13657.138     -187970.68      1.5449442      19683               2349 
    769000   1984.7223      256637.37     -201866.35      13890.957     -187975.39      1.5449442      19683               2349 
    769500   1978.1203      264518.23     -201764.52      13844.749     -187919.77      1.5449442      19683               2349 
    770000   2020.5148      247555.13     -201937.61      14141.466     -187796.14      1.5449442      19683               2349 
    770500   1997.8984      255004.81     -201665.08      13983.175     -187681.9       1.5449442      19683               2349 
    771000   2022.3479      259594.4      -201769.2       14154.296     -187614.91      1.5449442      19683               2349 
    771500   1970.6861      270357.54     -201399.78      13792.718     -187607.06      1.5449442      19683               2349 
    772000   2049.0539      263288.39     -201966.27      14341.209     -187625.06      1.5449442      19683               2349 
    772500   1998.8611      261908.49     -201723.18      13989.913     -187733.27      1.5449442      19683               2349 
    773000   2034.2033      258308.25     -202155.66      14237.271     -187918.39      1.5449442      19683               2349 
    773500   1978.8509      269227.11     -202007.52      13849.862     -188157.66      1.5449442      19683               2349 
    774000   1980.8593      258653.22     -202165.86      13863.919     -188301.94      1.5449442      19683               2349 
    774500   1956.8508      253886.45     -202072.22      13695.885     -188376.33      1.5449442      19683               2349 
    775000   1925.9594      267909.07     -201790.02      13479.678     -188310.34      1.5449442      19683               2349 
    775500   1992.3871      256761.98     -202008.22      13944.602     -188063.62      1.5449442      19683               2349 
    776000   2014.9825      255614.21     -201861.43      14102.746     -187758.69      1.5449442      19683               2349 
    776500   2039.9495      263221.37     -201863.69      14277.488     -187586.2       1.5449442      19683               2349 
    777000   2026.7095      259224.17     -201735.93      14184.822     -187551.11      1.5449442      19683               2349 
    777500   1963.6109      260515.89     -201322.44      13743.199     -187579.25      1.5449442      19683               2349 
    778000   2018.4452      258086.41     -201691.7       14126.981     -187564.71      1.5449442      19683               2349 
    778500   2050.2165      261919.55     -201951.57      14349.346     -187602.23      1.5449442      19683               2349 
    779000   1999.6002      262361.93     -201697.64      13995.086     -187702.55      1.5449442      19683               2349 
    779500   2007.3797      264567.89     -201958.37      14049.534     -187908.83      1.5449442      19683               2349 
    780000   1955.0142      258568.96     -201859.42      13683.031     -188176.39      1.5449442      19683               2349 
    780500   1930.8171      250711.53     -201852.6       13513.677     -188338.93      1.5449442      19683               2349 
    781000   1914.3952      265510.11     -201722.85      13398.741     -188324.11      1.5449442      19683               2349 
    781500   1940.436       262307.45     -201798.88      13580.999     -188217.88      1.5449442      19683               2349 
    782000   2029.7596      257605.17     -202295.84      14206.17      -188089.67      1.5449442      19683               2349 
    782500   1948.9697      260041.13     -201622.46      13640.726     -187981.73      1.5449442      19683               2349 
    783000   2001.1573      262340.26     -201884.73      14005.984     -187878.74      1.5449442      19683               2349 
    783500   1975.4953      262298.22     -201610.63      13826.377     -187784.25      1.5449442      19683               2349 
    784000   2018.2298      272983.18     -201787.25      14125.473     -187661.77      1.5449442      19683               2349 
    784500   2013.4205      259914        -201540.02      14091.813     -187448.21      1.5449442      19683               2349 
    785000   2048.6372      265411.76     -201506.2       14338.293     -187167.9       1.5449442      19683               2349 
    785500   2029.8324      252637.45     -201160.75      14206.679     -186954.07      1.5449442      19683               2349 
    786000   2097.0242      264353.48     -201581.34      14676.951     -186904.39      1.5449442      19683               2349 
    786500   2038.2164      258262.73     -201428.51      14265.358     -187163.15      1.5449442      19683               2349 
    787000   2037.8611      257250.7      -201828.05      14262.872     -187565.18      1.5449442      19683               2349 
    787500   2023.1858      262003.67     -201980.72      14160.16      -187820.56      1.5449442      19683               2349 
    788000   2019.0523      264091.75     -202078.83      14131.23      -187947.6       1.5449442      19683               2349 
    788500   1950.3992      253054.78     -201648.88      13650.731     -187998.15      1.5449442      19683               2349 
    789000   2006.9897      260077.96     -201998.95      14046.805     -187952.15      1.5449442      19683               2349 
    789500   2004.9282      257753.37     -201870.29      14032.376     -187837.91      1.5449442      19683               2349 
    790000   2028.7681      264548.84     -201903.3       14199.23      -187704.07      1.5449442      19683               2349 
    790500   2023.7402      268344.98     -201696.67      14164.04      -187532.63      1.5449442      19683               2349 
    791000   2025.7162      260922.21     -201566.39      14177.87      -187388.52      1.5449442      19683               2349 
    791500   2044.1992      253828.02     -201627.39      14307.232     -187320.16      1.5449442      19683               2349 
    792000   2001.8436      266485.25     -201467.78      14010.787     -187456.99      1.5449442      19683               2349 
    792500   2047.9762      260145.51     -202150.62      14333.666     -187816.95      1.5449442      19683               2349 
    793000   1978.8042      248987.42     -201945.07      13849.536     -188095.54      1.5449442      19683               2349 
    793500   1984.4593      252775.61     -202071.25      13889.116     -188182.13      1.5449442      19683               2349 
    794000   2018.825       263896.59     -202271.28      14129.639     -188141.64      1.5449442      19683               2349 
    794500   1993.2553      264850.53     -202021.72      13950.678     -188071.04      1.5449442      19683               2349 
    795000   2035.9684      271277.15     -202198.91      14249.624     -187949.29      1.5449442      19683               2349 
    795500   1973.3077      261522.29     -201627.04      13811.066     -187815.97      1.5449442      19683               2349 
    796000   2023.2682      262186.7      -201733.24      14160.737     -187572.5       1.5449442      19683               2349 
    796500   2012.4875      266997.31     -201349.82      14085.283     -187264.54      1.5449442      19683               2349 
    797000   2066.7028      260135.86     -201486.95      14464.733     -187022.22      1.5449442      19683               2349 
    797500   2091.0893      270267.73     -201573.45      14635.413     -186938.03      1.5449442      19683               2349 
    798000   2067.5254      265813.91     -201495.47      14470.49      -187024.98      1.5449442      19683               2349 
    798500   1990.4247      269726.33     -201274.73      13930.867     -187343.87      1.5449442      19683               2349 
    799000   2011.1876      262762.76     -201742.45      14076.185     -187666.27      1.5449442      19683               2349 
    799500   1961.2786      267512.41     -201494.75      13726.875     -187767.87      1.5449442      19683               2349 
    800000   1997.2902      272316.46     -201751.64      13978.918     -187772.72      1.5449442      19683               2349 
    800500   1983.6908      260846.48     -201622.75      13883.737     -187739.01      1.5449442      19683               2349 
    801000   1998.6486      264472.56     -201677.55      13988.426     -187689.12      1.5449442      19683               2349 
    801500   2009.5728      262021.67     -201716.99      14064.884     -187652.11      1.5449442      19683               2349 
    802000   2017.7081      255662.47     -201779.5       14121.822     -187657.68      1.5449442      19683               2349 
    802500   2012.0621      267185.94     -201725.44      14082.306     -187643.14      1.5449442      19683               2349 
    803000   2057.6536      250912.47     -201985.38      14401.398     -187583.98      1.5449442      19683               2349 
    803500   2006.2327      264030.68     -201586.79      14041.506     -187545.29      1.5449442      19683               2349 
    804000   1997.5197      274246.9      -201536.29      13980.524     -187555.77      1.5449442      19683               2349 
    804500   1980.0693      268475.73     -201475.56      13858.39      -187617.17      1.5449442      19683               2349 
    805000   1982.0889      262007.49     -201638.03      13872.526     -187765.51      1.5449442      19683               2349 
    805500   1966.1099      273216.05     -201738.65      13760.689     -187977.96      1.5449442      19683               2349 
    806000   2009.8373      252926.23     -202259.81      14066.735     -188193.07      1.5449442      19683               2349 
    806500   1960.9572      271313.39     -202010.07      13724.625     -188285.45      1.5449442      19683               2349 
    807000   1981.0612      263413.86     -202109.61      13865.332     -188244.28      1.5449442      19683               2349 
    807500   1998.6145      261859.6      -202091.29      13988.187     -188103.1       1.5449442      19683               2349 
    808000   1980.2065      254406.04     -201671.17      13859.35      -187811.82      1.5449442      19683               2349 
    808500   2030.41        266754.68     -201679.63      14210.722     -187468.91      1.5449442      19683               2349 
    809000   2042.148       261294.72     -201650.29      14292.876     -187357.41      1.5449442      19683               2349 
    809500   2047.1817      270389.55     -201727.83      14328.106     -187399.72      1.5449442      19683               2349 
    810000   2015.8274      269137.51     -201623.13      14108.659     -187514.47      1.5449442      19683               2349 
    810500   2020.4583      256007.3      -201825.23      14141.071     -187684.16      1.5449442      19683               2349 
    811000   1979.0832      264782.16     -201704.26      13851.488     -187852.77      1.5449442      19683               2349 
    811500   2019.6986      258974.22     -202102.4       14135.754     -187966.65      1.5449442      19683               2349 
    812000   1987.8937      251977.55     -201985.61      13913.153     -188072.45      1.5449442      19683               2349 
    812500   1983.4007      270726.12     -202024.02      13881.706     -188142.32      1.5449442      19683               2349 
    813000   1991.3887      256382.85     -202116.46      13937.614     -188178.85      1.5449442      19683               2349 
    813500   1975.2438      263477.94     -201986.83      13824.617     -188162.22      1.5449442      19683               2349 
    814000   1974.046       259887.01     -201918.69      13816.233     -188102.45      1.5449442      19683               2349 
    814500   2002.552       263923.43     -201910.52      14015.746     -187894.78      1.5449442      19683               2349 
    815000   2035.6165      256448.84     -201877.76      14247.162     -187630.6       1.5449442      19683               2349 
    815500   2033.941       264148.55     -201693.43      14235.435     -187457.99      1.5449442      19683               2349 
    816000   2009.0687      260827.53     -201450.16      14061.355     -187388.8       1.5449442      19683               2349 
    816500   2015.5306      262908.67     -201539.56      14106.582     -187432.98      1.5449442      19683               2349 
    817000   2047.2793      249744.71     -201951.78      14328.789     -187622.99      1.5449442      19683               2349 
    817500   2029.487       260687.48     -202135.8       14204.262     -187931.54      1.5449442      19683               2349 
    818000   1978.3445      250149.93     -201921.03      13846.318     -188074.71      1.5449442      19683               2349 
    818500   1978.4465      271147.9      -201929.83      13847.032     -188082.8       1.5449442      19683               2349 
    819000   1986.0996      258658.97     -201906.05      13900.596     -188005.46      1.5449442      19683               2349 
    819500   1977.6333      260479.74     -201756.9       13841.341     -187915.56      1.5449442      19683               2349 
    820000   2035.6169      259331.16     -202058.95      14247.164     -187811.78      1.5449442      19683               2349 
    820500   2014.4122      256573.69     -201788.01      14098.754     -187689.25      1.5449442      19683               2349 
    821000   2041.9706      257144.58     -201777.25      14291.634     -187485.62      1.5449442      19683               2349 
    821500   2049.2971      274803.58     -201516.31      14342.911     -187173.4       1.5449442      19683               2349 
    822000   2045.0978      262733.74     -201232.61      14313.521     -186919.09      1.5449442      19683               2349 
    822500   2040.1614      264416.49     -201209.4       14278.971     -186930.43      1.5449442      19683               2349 
    823000   2032.4328      266065.99     -201406.99      14224.879     -187182.11      1.5449442      19683               2349 
    823500   2030.984       253340.71     -201754.04      14214.739     -187539.3       1.5449442      19683               2349 
    824000   2017.1435      259424.66     -201828.32      14117.87      -187710.45      1.5449442      19683               2349 
    824500   2045.2075      256046.39     -202136.36      14314.288     -187822.07      1.5449442      19683               2349 
    825000   2035.7897      256530.4      -202222.24      14248.374     -187973.87      1.5449442      19683               2349 
    825500   1998.7882      255131.58     -202097.17      13989.403     -188107.77      1.5449442      19683               2349 
    826000   1978.0015      242752.81     -202006.42      13843.918     -188162.5       1.5449442      19683               2349 
    826500   1966.1091      257898.26     -201871.63      13760.684     -188110.95      1.5449442      19683               2349 
    827000   2004.1286      257888.64     -202004.49      14026.78      -187977.71      1.5449442      19683               2349 
    827500   2054.7442      262807.22     -202066.09      14381.035     -187685.05      1.5449442      19683               2349 
    828000   2025.1518      263232.17     -201631.81      14173.92      -187457.89      1.5449442      19683               2349 
    828500   2024.8701      263215.58     -201520.84      14171.949     -187348.89      1.5449442      19683               2349 
    829000   2049.0723      254156.56     -201717.29      14341.338     -187375.95      1.5449442      19683               2349 
    829500   1999.9413      256548.66     -201673.49      13997.473     -187676.02      1.5449442      19683               2349 
    830000   1984.7068      253850.08     -201950.79      13890.848     -188059.94      1.5449442      19683               2349 
    830500   1956.2465      254830.31     -201860.21      13691.656     -188168.56      1.5449442      19683               2349 
    831000   1959.7698      253537.35     -201871.67      13716.315     -188155.36      1.5449442      19683               2349 
    831500   1982.5427      254465.29     -201913.32      13875.701     -188037.62      1.5449442      19683               2349 
    832000   1962.2379      261631.64     -201617.19      13733.589     -187883.6       1.5449442      19683               2349 
    832500   2070.3498      257480.44     -202189.97      14490.258     -187699.71      1.5449442      19683               2349 
    833000   2003.5202      253040.89     -201598.27      14022.522     -187575.75      1.5449442      19683               2349 
    833500   2048.1967      260718.32     -201860.45      14335.21      -187525.24      1.5449442      19683               2349 
    834000   2019.8907      267307.14     -201789.3       14137.098     -187652.2       1.5449442      19683               2349 
    834500   1969.3664      255166.23     -201804.26      13783.481     -188020.78      1.5449442      19683               2349 
    835000   1947.1644      257290.18     -201924.25      13628.091     -188296.16      1.5449442      19683               2349 
    835500   2011.2894      256068.96     -202421.69      14076.898     -188344.8       1.5449442      19683               2349 
    836000   2035.2803      259013.52     -202515.2       14244.809     -188270.39      1.5449442      19683               2349 
    836500   2012.2488      249563.65     -202266.19      14083.612     -188182.58      1.5449442      19683               2349 
    837000   1999.9899      273408.45     -202088.12      13997.813     -188090.3       1.5449442      19683               2349 
    837500   2019.7657      262333.37     -202131.42      14136.223     -187995.2       1.5449442      19683               2349 
    838000   1993.5151      262731.68     -201768.31      13952.496     -187815.82      1.5449442      19683               2349 
    838500   2017.8244      261376.48     -201629.4       14122.636     -187506.77      1.5449442      19683               2349 
    839000   2085.2848      266931.8      -201783.85      14594.787     -187189.07      1.5449442      19683               2349 
    839500   2072.2286      278499.71     -201623.39      14503.407     -187119.99      1.5449442      19683               2349 
    840000   2053.6308      268238.8      -201677.31      14373.243     -187304.07      1.5449442      19683               2349 
    840500   2067.868       258101.49     -201989.18      14472.888     -187516.3       1.5449442      19683               2349 
    841000   2030.122       269352.32     -201912.32      14208.706     -187703.61      1.5449442      19683               2349 
    841500   2007.9531      249846.69     -201912.67      14053.547     -187859.12      1.5449442      19683               2349 
    842000   1968.7825      263007.76     -201760.13      13779.394     -187980.73      1.5449442      19683               2349 
    842500   1980.9748      262746.02     -201910.68      13864.728     -188045.95      1.5449442      19683               2349 
    843000   1995.6246      261677.47     -202082.5       13967.261     -188115.23      1.5449442      19683               2349 
    843500   2034.3357      257543.14     -202403.44      14238.198     -188165.25      1.5449442      19683               2349 
    844000   1993.5581      265410.43     -202137.18      13952.798     -188184.38      1.5449442      19683               2349 
    844500   1930.2198      260797.47     -201708.7       13509.496     -188199.2       1.5449442      19683               2349 
    845000   1970.9012      274911.18     -201867.36      13794.223     -188073.14      1.5449442      19683               2349 
    845500   1953.6522      259942.4      -201446.72      13673.498     -187773.22      1.5449442      19683               2349 
    846000   2067.2415      257136.9      -201959.58      14468.503     -187491.07      1.5449442      19683               2349 
    846500   2058.957       261567.88     -201800.69      14410.521     -187390.17      1.5449442      19683               2349 
    847000   2047.0164      268923.96     -201754.15      14326.949     -187427.2       1.5449442      19683               2349 
    847500   2003.3871      255076.79     -201612.95      14021.59      -187591.36      1.5449442      19683               2349 
    848000   2022.4306      254282.85     -201959.72      14154.875     -187804.84      1.5449442      19683               2349 
    848500   1956.9403      261515.16     -201700.52      13696.512     -188004.01      1.5449442      19683               2349 
    849000   2014.0675      257893.21     -202201.67      14096.342     -188105.33      1.5449442      19683               2349 
    849500   1962.6873      265978.94     -201879.15      13736.734     -188142.41      1.5449442      19683               2349 
    850000   1983.9874      264172.11     -202016.04      13885.813     -188130.23      1.5449442      19683               2349 
    850500   1988.4512      261368.04     -201982.58      13917.055     -188065.52      1.5449442      19683               2349 
    851000   2034.8869      264140.49     -202200.82      14242.055     -187958.77      1.5449442      19683               2349 
    851500   1965.9671      265178.67     -201610.12      13759.69      -187850.43      1.5449442      19683               2349 
    852000   2039.3919      260232.05     -201972.11      14273.586     -187698.53      1.5449442      19683               2349 
    852500   1989.7121      267472.13     -201450.88      13925.879     -187525         1.5449442      19683               2349 
    853000   2079.9691      268921.36     -201852.56      14557.583     -187294.97      1.5449442      19683               2349 
    853500   2074.8736      261207.49     -201638.2       14521.92      -187116.28      1.5449442      19683               2349 
    854000   2038.5813      264002.01     -201414.8       14267.912     -187146.89      1.5449442      19683               2349 
    854500   2006.3632      256533.87     -201484.19      14042.42      -187441.77      1.5449442      19683               2349 
    855000   2031.0603      255182.57     -202008.86      14215.273     -187793.59      1.5449442      19683               2349 
    855500   2017.3055      258095.36     -202103.25      14119.004     -187984.24      1.5449442      19683               2349 
    856000   2018.7555      257480.06     -202250.33      14129.152     -188121.18      1.5449442      19683               2349 
    856500   2031.5473      260433.84     -202497.99      14218.681     -188279.31      1.5449442      19683               2349 
    857000   1965.3657      245826.79     -202138.18      13755.48      -188382.7       1.5449442      19683               2349 
    857500   1969.6289      262169.63     -202160.59      13785.319     -188375.28      1.5449442      19683               2349 
    858000   1968.5146      256520.34     -202038.15      13777.519     -188260.63      1.5449442      19683               2349 
    858500   1965.4288      249257.24     -201802.67      13755.922     -188046.74      1.5449442      19683               2349 
    859000   2014.7979      252192.42     -201808.61      14101.454     -187707.16      1.5449442      19683               2349 
    859500   2073.4279      254494.84     -202038.63      14511.801     -187526.82      1.5449442      19683               2349 
    860000   2069.0906      273902.15     -201994.84      14481.445     -187513.4       1.5449442      19683               2349 
    860500   2047.3586      257424.05     -201965.38      14329.344     -187636.04      1.5449442      19683               2349 
    861000   2015.7681      264970.26     -201877.39      14108.244     -187769.15      1.5449442      19683               2349 
    861500   1991.4181      264616.83     -201812.91      13937.82      -187875.09      1.5449442      19683               2349 
    862000   2023.4204      269548.79     -202100.76      14161.802     -187938.95      1.5449442      19683               2349 
    862500   2011.1817      255675.36     -202072.92      14076.144     -187996.77      1.5449442      19683               2349 
    863000   2011.8161      267197.19     -202148.57      14080.584     -188067.98      1.5449442      19683               2349 
    863500   2018.1263      251207.42     -202288.19      14124.749     -188163.44      1.5449442      19683               2349 
    864000   1969.085       252923.89     -202021.05      13781.512     -188239.53      1.5449442      19683               2349 
    864500   1979.9295      251958.93     -202195.18      13857.412     -188337.76      1.5449442      19683               2349 
    865000   1975.7562      246187.97     -202320.18      13828.203     -188491.97      1.5449442      19683               2349 
    865500   1956.5004      252296.59     -202447.57      13693.433     -188754.14      1.5449442      19683               2349 
    866000   1887.9195      253875.99     -202127.57      13213.439     -188914.13      1.5449442      19683               2349 
    866500   1922.8392      256184.6      -202263.91      13457.84      -188806.07      1.5449442      19683               2349 
    867000   1953.5214      257812.08     -202180.85      13672.583     -188508.27      1.5449442      19683               2349 
    867500   1936.5056      266279.85     -201783.63      13553.49      -188230.14      1.5449442      19683               2349 
    868000   1988.855       266514.84     -202014.85      13919.881     -188094.97      1.5449442      19683               2349 
    868500   1980.7725      260205.41     -201890.08      13863.312     -188026.76      1.5449442      19683               2349 
    869000   2006.3962      259342.91     -201981.48      14042.651     -187938.83      1.5449442      19683               2349 
    869500   2005.3459      262254.73     -201946.54      14035.299     -187911.24      1.5449442      19683               2349 
    870000   2030.8888      277290.87     -202136.57      14214.073     -187922.5       1.5449442      19683               2349 
    870500   2026.5566      256383.93     -202251.51      14183.752     -188067.76      1.5449442      19683               2349 
    871000   1990.4824      248822.88     -202391.82      13931.271     -188460.55      1.5449442      19683               2349 
    871500   1942.4216      267534.75     -202319.09      13594.896     -188724.19      1.5449442      19683               2349 
    872000   1981.0827      251656.54     -202605.15      13865.483     -188739.67      1.5449442      19683               2349 
    872500   1946.2334      247981.1      -202273.95      13621.575     -188652.38      1.5449442      19683               2349 
    873000   1984.5341      249040.43     -202349.96      13889.639     -188460.32      1.5449442      19683               2349 
    873500   1948.567       261866.42     -201853.2       13637.908     -188215.29      1.5449442      19683               2349 
    874000   2009.7419      264111.42     -202089.54      14066.067     -188023.47      1.5449442      19683               2349 
    874500   1994.957       278695.8      -201870.63      13962.589     -187908.04      1.5449442      19683               2349 
    875000   1974.9433      264432.68     -201700.38      13822.514     -187877.87      1.5449442      19683               2349 
    875500   2039.201       263250.04     -202194.56      14272.25      -187922.31      1.5449442      19683               2349 
    876000   2003.3086      250072.54     -202046.62      14021.041     -188025.58      1.5449442      19683               2349 
    876500   2014.2084      266379.91     -202255.98      14097.327     -188158.65      1.5449442      19683               2349 
    877000   1991.4471      260105.16     -202277.73      13938.022     -188339.7       1.5449442      19683               2349 
    877500   1964.6257      268054.41     -202297.98      13750.301     -188547.68      1.5449442      19683               2349 
    878000   1933.1825      257605.22     -202333.94      13530.232     -188803.71      1.5449442      19683               2349 
    878500   1892.5228      263668.72     -202314.86      13245.657     -189069.2       1.5449442      19683               2349 
    879000   1957.6614      259084.46     -202890.38      13701.559     -189188.82      1.5449442      19683               2349 
    879500   1946.646       250507.39     -202665.99      13624.462     -189041.53      1.5449442      19683               2349 
    880000   1963.1926      255414.89     -202312.64      13740.271     -188572.37      1.5449442      19683               2349 
    880500   1993.5237      261427.11     -202202.79      13952.557     -188250.23      1.5449442      19683               2349 
    881000   1985.4878      258859.94     -201992.2       13896.314     -188095.88      1.5449442      19683               2349 
    881500   2025.6181      261882.34     -202175.31      14177.183     -187998.13      1.5449442      19683               2349 
    882000   2021.5165      267792.11     -202055.96      14148.477     -187907.49      1.5449442      19683               2349 
    882500   1995.2613      260613.9      -201849.87      13964.718     -187885.15      1.5449442      19683               2349 
    883000   2037.7022      256126.64     -202157.98      14261.759     -187896.22      1.5449442      19683               2349 
    883500   1974.4773      256351.78     -201857.18      13819.252     -188037.92      1.5449442      19683               2349 
    884000   1998.101       253394.16     -202242.17      13984.593     -188257.57      1.5449442      19683               2349 
    884500   1980.0021      262826.64     -202328.29      13857.92      -188470.37      1.5449442      19683               2349 
    885000   1957.9911      258211.54     -202246.97      13703.866     -188543.1       1.5449442      19683               2349 
    885500   1968.5014      261774        -202301.65      13777.427     -188524.23      1.5449442      19683               2349 
    886000   1976.4481      261825.18     -202193.51      13833.046     -188360.46      1.5449442      19683               2349 
    886500   2012.8257      259452.89     -202040.92      14087.65      -187953.27      1.5449442      19683               2349 
    887000   2031.5476      268751.59     -201861.45      14218.683     -187642.77      1.5449442      19683               2349 
    887500   2079.58        256432.32     -202163.59      14554.86      -187608.73      1.5449442      19683               2349 
    888000   2033.4386      264305.67     -201898.74      14231.919     -187666.82      1.5449442      19683               2349 
    888500   2025.8761      268425.62     -201965.9       14178.989     -187786.91      1.5449442      19683               2349 
    889000   1995.7673      270913.37     -201919.98      13968.259     -187951.72      1.5449442      19683               2349 
    889500   1967.3963      250135.5      -201876.65      13769.692     -188106.96      1.5449442      19683               2349 
    890000   1984.0634      261727.73     -202125.9       13886.345     -188239.56      1.5449442      19683               2349 
    890500   1979.1129      260498.9      -202195.7       13851.696     -188344         1.5449442      19683               2349 
    891000   1977.4443      252752.76     -202226.8       13840.018     -188386.79      1.5449442      19683               2349 
    891500   1975.3334      262583.93     -202129.91      13825.244     -188304.66      1.5449442      19683               2349 
    892000   2007.408       253947.22     -201981.61      14049.732     -187931.88      1.5449442      19683               2349 
    892500   2003.7743      266601.83     -201639.85      14024.3       -187615.55      1.5449442      19683               2349 
    893000   2067.8256      257216.98     -201932.99      14472.591     -187460.4       1.5449442      19683               2349 
    893500   2014.2842      265397.76     -201566.2       14097.858     -187468.34      1.5449442      19683               2349 
    894000   2041.5458      267363.04     -201899.51      14288.661     -187610.85      1.5449442      19683               2349 
    894500   2017.0271      249741.61     -201914.45      14117.056     -187797.39      1.5449442      19683               2349 
    895000   1979.2667      263171.69     -201844.51      13852.773     -187991.74      1.5449442      19683               2349 
    895500   1983.7768      260972.25     -202072.02      13884.339     -188187.68      1.5449442      19683               2349 
    896000   1943.3645      269983.55     -201923.41      13601.495     -188321.91      1.5449442      19683               2349 
    896500   1987.2387      262959.02     -202228.92      13908.568     -188320.35      1.5449442      19683               2349 
    897000   1980.9588      248202.17     -202123.43      13864.615     -188258.82      1.5449442      19683               2349 
    897500   2010.6954      246900.39     -202249.28      14072.74      -188176.54      1.5449442      19683               2349 
    898000   2029.9949      263444.35     -202283.42      14207.817     -188075.61      1.5449442      19683               2349 
    898500   1995.1641      265188.99     -201987.33      13964.038     -188023.29      1.5449442      19683               2349 
    899000   1972.2251      258057.08     -201799.5       13803.489     -187996.01      1.5449442      19683               2349 
    899500   2007.2279      260109.24     -202060.35      14048.472     -188011.87      1.5449442      19683               2349 
    900000   1995.3744      260139.11     -202071.19      13965.51      -188105.68      1.5449442      19683               2349 
    900500   2030.5685      253748.5      -202607.59      14211.831     -188395.76      1.5449442      19683               2349 
    901000   1966.0075      254431.39     -202549.53      13759.973     -188789.56      1.5449442      19683               2349 
    901500   1937.64        256629.33     -202433.47      13561.43      -188872.04      1.5449442      19683               2349 
    902000   1942.3826      258515.95     -202331.57      13594.623     -188736.94      1.5449442      19683               2349 
    902500   1940.9787      262377.16     -202123.27      13584.798     -188538.47      1.5449442      19683               2349 
    903000   2013.492       256643.06     -202390.5       14092.313     -188298.18      1.5449442      19683               2349 
    903500   1965.459       266571.96     -201869.53      13756.134     -188113.4       1.5449442      19683               2349 
    904000   1994.351       254418.78     -201924.32      13958.347     -187965.97      1.5449442      19683               2349 
    904500   2050.6309      261891.15     -202188.77      14352.247     -187836.53      1.5449442      19683               2349 
    905000   2004.203       253397.09     -201818.01      14027.3       -187790.71      1.5449442      19683               2349 
    905500   2031.3614      254668.16     -202043.99      14217.381     -187826.61      1.5449442      19683               2349 
    906000   1983.152       268338.79     -201844.24      13879.966     -187964.28      1.5449442      19683               2349 
    906500   1990.9654      255690.98     -202146.64      13934.651     -188211.99      1.5449442      19683               2349 
    907000   1973.0605      258263.95     -202249.31      13809.336     -188439.98      1.5449442      19683               2349 
    907500   1933.3089      268013.92     -202062.61      13531.117     -188531.49      1.5449442      19683               2349 
    908000   1964.6173      265042.85     -202253.45      13750.242     -188503.21      1.5449442      19683               2349 
    908500   2015.8211      261840.79     -202523.49      14108.615     -188414.87      1.5449442      19683               2349 
    909000   1962.8972      267851.16     -202069.33      13738.203     -188331.13      1.5449442      19683               2349 
    909500   1978.4484      262199.18     -202108.26      13847.046     -188261.21      1.5449442      19683               2349 
    910000   2037.7627      270071.47     -202431.63      14262.183     -188169.45      1.5449442      19683               2349 
    910500   2001.493       263374.57     -202051.41      14008.334     -188043.07      1.5449442      19683               2349 
    911000   2033.3388      264188.8      -202165.69      14231.22      -187934.47      1.5449442      19683               2349 
    911500   2058.7266      259003.15     -202221.54      14408.908     -187812.63      1.5449442      19683               2349 
    912000   2046.4842      263515.46     -202000.58      14323.224     -187677.35      1.5449442      19683               2349 
    912500   1986.7041      267621.4      -201462.78      13904.827     -187557.95      1.5449442      19683               2349 
    913000   2044.0778      266122.44     -201841.46      14306.382     -187535.08      1.5449442      19683               2349 
    913500   2002.8923      266262.42     -201714.16      14018.127     -187696.03      1.5449442      19683               2349 
    914000   2034.9004      266647.27     -202230.53      14242.15      -187988.38      1.5449442      19683               2349 
    914500   2002.1143      258983.91     -202271.05      14012.682     -188258.37      1.5449442      19683               2349 
    915000   1963.6127      263592.37     -202123.16      13743.211     -188379.95      1.5449442      19683               2349 
    915500   1939.1789      267330.77     -202003.6       13572.2       -188431.4       1.5449442      19683               2349 
    916000   1977.9509      251833.19     -202245.67      13843.563     -188402.11      1.5449442      19683               2349 
    916500   2011.8075      248839.47     -202409.82      14080.524     -188329.3       1.5449442      19683               2349 
    917000   2002.9659      264216.06     -202163.21      14018.642     -188144.57      1.5449442      19683               2349 
    917500   2013.3864      264706.58     -201953.28      14091.575     -187861.71      1.5449442      19683               2349 
    918000   2029.1803      257364.26     -201787.64      14202.115     -187585.53      1.5449442      19683               2349 
    918500   2055.2974      265747.45     -201909.95      14384.907     -187525.05      1.5449442      19683               2349 
    919000   2067.6403      269240.96     -202062.61      14471.294     -187591.32      1.5449442      19683               2349 
    919500   2051.5439      265063.79     -202219.97      14358.637     -187861.34      1.5449442      19683               2349 
    920000   2043.6301      260364.67     -202509.19      14303.249     -188205.94      1.5449442      19683               2349 
    920500   1963.064       257942.45     -202067.43      13739.371     -188328.06      1.5449442      19683               2349 
    921000   2010.1315      267509.33     -202387.55      14068.794     -188318.76      1.5449442      19683               2349 
    921500   2001.9218      250671.91     -202290.75      14011.334     -188279.42      1.5449442      19683               2349 
    922000   1966.5587      266661.48     -201997.42      13763.83      -188233.59      1.5449442      19683               2349 
    922500   1974.4228      260774.15     -201986.56      13818.871     -188167.69      1.5449442      19683               2349 
    923000   2010.1074      262145.79     -202179.62      14068.625     -188110.99      1.5449442      19683               2349 
    923500   1974.0456      256116.4      -201878.14      13816.231     -188061.91      1.5449442      19683               2349 
    924000   2007.6954      261342.11     -202020.35      14051.744     -187968.6       1.5449442      19683               2349 
    924500   2049.8745      264788.17     -202241.67      14346.952     -187894.72      1.5449442      19683               2349 
    925000   2019.5701      255893.03     -202016.5       14134.854     -187881.64      1.5449442      19683               2349 
    925500   2028.963       259691.05     -202177.12      14200.595     -187976.52      1.5449442      19683               2349 
    926000   1973.8835      259140.13     -202017.54      13815.096     -188202.44      1.5449442      19683               2349 
    926500   1977.0043      254963.63     -202249.07      13836.938     -188412.13      1.5449442      19683               2349 
    927000   1957.186       259464.75     -202179.34      13698.231     -188481.11      1.5449442      19683               2349 
    927500   1987.4984      254812.61     -202336.34      13910.386     -188425.95      1.5449442      19683               2349 
    928000   1987.2961      259114.42     -202183.76      13908.97      -188274.79      1.5449442      19683               2349 
    928500   2019.5933      263336.53     -202090.75      14135.016     -187955.73      1.5449442      19683               2349 
    929000   2057.0142      253999.82     -202020.01      14396.923     -187623.08      1.5449442      19683               2349 
    929500   2046.6998      273546.22     -201842.97      14324.733     -187518.24      1.5449442      19683               2349 
    930000   2013.9142      267023.83     -201695.96      14095.269     -187600.69      1.5449442      19683               2349 
    930053   2023.2382      267708.83     -201770.67      14160.527     -187610.14      1.5449442      19683               2349 
Loop time of 22969.9 on 48 procs for 400000 steps with 2349 atoms

Performance: 0.150 ns/day, 159.513 hours/ns, 17.414 timesteps/s, 40.906 katom-step/s
99.4% CPU use with 12 MPI tasks x 4 OpenMP threads

MPI task timing breakdown:
Section |  min time  |  avg time  |  max time  |%varavg| %total
---------------------------------------------------------------
Pair    | 19056      | 19370      | 19528      |  97.1 | 84.33
Neigh   | 153.79     | 154.58     | 155.8      |   4.6 |  0.67
Comm    | 326.44     | 484.53     | 798.18     | 613.3 |  2.11
Output  | 0.10377    | 0.1209     | 0.14558    |   3.2 |  0.00
Modify  | 2949       | 2950.1     | 2951.1     |   1.1 | 12.84
Other   |            | 10.19      |            |       |  0.04

Nlocal:         195.75 ave         203 max         186 min
Histogram: 1 0 1 3 1 0 0 2 2 2
Nghost:        5333.25 ave        5368 max        5297 min
Histogram: 2 0 2 2 0 0 0 3 1 2
Neighs:         152104 ave      157616 max      145288 min
Histogram: 1 0 3 2 0 0 0 2 2 2

Total # of neighbors = 1825252
Ave neighs/atom = 777.03363
Neighbor list builds = 4182
Dangerous builds = 0
System init for write_restart ...
--- Condensation Stage 3/4 ---
Setting up Verlet run ...
  Unit style    : real
  Current step  : 930053
  Time step     : 0.1
Per MPI rank memory allocation (min/avg/max) = 374.3 | 381.4 | 387.1 Mbytes
   Step          Temp          Press          PotEng         KinEng         TotEng        Density         Volume        Atoms   
    930053   2023.2382      267708.39     -201770.67      14160.527     -187610.14      1.5449442      19683               2349 
    930500   2030.1353      260602.13     -201921.52      14208.799     -187712.72      1.5449442      19683               2349 
    931000   1994.1843      252149.11     -201774.51      13957.18      -187817.33      1.5449442      19683               2349 
    931500   2001.2061      261193.36     -201947.05      14006.325     -187940.72      1.5449442      19683               2349 
    932000   2019.9325      259574.76     -202158.73      14137.39      -188021.34      1.5449442      19683               2349 
    932500   1961.7023      257693.68     -201824.64      13729.841     -188094.8       1.5449442      19683               2349 
    933000   1954.2369      263896.94     -201856.81      13677.59      -188179.22      1.5449442      19683               2349 
    933500   1969.0332      263655.1      -202022.68      13781.149     -188241.53      1.5449442      19683               2349 
    934000   1984.6104      268503.65     -202242.33      13890.173     -188352.15      1.5449442      19683               2349 
    934500   1944.4372      261356.66     -202193.3       13609.003     -188584.3       1.5449442      19683               2349 
    935000   1932.7576      260673.05     -202272.68      13527.258     -188745.42      1.5449442      19683               2349 
    935500   1941.7767      250755.14     -202390.34      13590.382     -188799.96      1.5449442      19683               2349 
    936000   1974.5431      258770.03     -202506.65      13819.713     -188686.94      1.5449442      19683               2349 
    936500   1985.1005      258351.8      -202310.58      13893.604     -188416.98      1.5449442      19683               2349 
    937000   1981.6935      257746.24     -201953.84      13869.758     -188084.09      1.5449442      19683               2349 
    937500   1987.827       260028.72     -201835.95      13912.686     -187923.26      1.5449442      19683               2349 
    938000   2004.6817      265776.8      -201839.96      14030.651     -187809.3       1.5449442      19683               2349 
    938500   2013.6698      264424.36     -201862.53      14093.558     -187768.98      1.5449442      19683               2349 
    939000   2008.5067      264095.31     -201877.37      14057.422     -187819.95      1.5449442      19683               2349 
    939500   2019.9818      261740.74     -202045.58      14137.736     -187907.85      1.5449442      19683               2349 
    940000   1997.2428      257922.85     -202112.86      13978.586     -188134.28      1.5449442      19683               2349 
    940500   1969.6014      267633.55     -202229.76      13785.126     -188444.63      1.5449442      19683               2349 
    941000   1971.6074      262051.72     -202423.86      13799.166     -188624.69      1.5449442      19683               2349 
    941500   1938.485       261881.83     -202220.48      13567.344     -188653.14      1.5449442      19683               2349 
    942000   1944.1061      260894.96     -202119.05      13606.686     -188512.37      1.5449442      19683               2349 
    942500   1968.4995      255347.84     -202136         13777.414     -188358.58      1.5449442      19683               2349 
    943000   1959.6972      256765.34     -201896.1       13715.807     -188180.3       1.5449442      19683               2349 
    943500   2045.7586      264526.8      -202349.14      14318.146     -188031         1.5449442      19683               2349 
    944000   1997.0548      262577.55     -201878.86      13977.271     -187901.59      1.5449442      19683               2349 
    944500   2025.6613      269919.92     -201965.81      14177.486     -187788.32      1.5449442      19683               2349 
    945000   1990.9787      264151.03     -201644.94      13934.744     -187710.19      1.5449442      19683               2349 
    945500   2030.7292      264581.66     -201880.03      14212.956     -187667.08      1.5449442      19683               2349 
    946000   2041.646       264524.46     -201968.96      14289.362     -187679.6       1.5449442      19683               2349 
    946500   2017.7017      263825.9      -201976.94      14121.777     -187855.16      1.5449442      19683               2349 
    947000   2007.422       254828.29     -202230.25      14049.83      -188180.42      1.5449442      19683               2349 
    947500   1965.799       265432.84     -202162.8       13758.513     -188404.29      1.5449442      19683               2349 
    948000   1980.4379      259596.46     -202325.09      13860.97      -188464.12      1.5449442      19683               2349 
    948500   1946.2061      255988.26     -202081.84      13621.383     -188460.45      1.5449442      19683               2349 
    949000   1993.2014      257677.5      -202296.11      13950.301     -188345.81      1.5449442      19683               2349 
    949500   1984.8893      259777.87     -202082.13      13892.125     -188190.01      1.5449442      19683               2349 
    950000   2004.0031      272796.1      -201976.69      14025.902     -187950.79      1.5449442      19683               2349 
    950500   2039.8507      253901.43     -201920.35      14276.796     -187643.55      1.5449442      19683               2349 
    951000   2070.9368      260726.47     -201998.36      14494.366     -187504         1.5449442      19683               2349 
    951500   2077.8334      270452.42     -202111.05      14542.635     -187568.42      1.5449442      19683               2349 
    952000   2008.6239      254709.73     -201957.92      14058.242     -187899.68      1.5449442      19683               2349 
    952500   2064.2958      253113.11     -202652.06      14447.886     -188204.17      1.5449442      19683               2349 
    953000   2000.9321      272170.72     -202293         14004.408     -188288.59      1.5449442      19683               2349 
    953500   2026.1513      249543.07     -202509.6       14180.915     -188328.68      1.5449442      19683               2349 
    954000   1994.106       264164.61     -202336.74      13956.632     -188380.11      1.5449442      19683               2349 
    954500   1981.4709      267497.25     -202251.8       13868.2       -188383.6       1.5449442      19683               2349 
    955000   1987.0376      252483.23     -202201.13      13907.161     -188293.97      1.5449442      19683               2349 
    955500   2005.7084      253490.93     -202227.98      14037.836     -188190.15      1.5449442      19683               2349 
    956000   2013.6097      260179.72     -202113.81      14093.138     -188020.68      1.5449442      19683               2349 
    956500   1994.2016      252358.31     -201831.1       13957.301     -187873.8       1.5449442      19683               2349 
    957000   2015.8783      265954.2      -201897.13      14109.016     -187788.11      1.5449442      19683               2349 
    957500   2001.4264      253653.11     -201831.19      14007.868     -187823.33      1.5449442      19683               2349 
    958000   2030.6401      251251.09     -202235.72      14212.332     -188023.38      1.5449442      19683               2349 
    958500   1992.2755      256162.96     -202266.61      13943.821     -188322.79      1.5449442      19683               2349 
    959000   1966.5625      266090.27     -202290.29      13763.857     -188526.43      1.5449442      19683               2349 
    959500   1971.5733      257193.48     -202416.26      13798.927     -188617.33      1.5449442      19683               2349 
    960000   1973.6922      258015.37     -202402.1       13813.757     -188588.35      1.5449442      19683               2349 
    960500   1969.0184      265179.97     -202243.99      13781.045     -188462.94      1.5449442      19683               2349 
    961000   2010.5666      264484.1      -202370.86      14071.839     -188299.03      1.5449442      19683               2349 
    961500   2005.3741      265019.87     -202172.66      14035.497     -188137.16      1.5449442      19683               2349 
    962000   2022.3715      265745.03     -202053.23      14154.461     -187898.77      1.5449442      19683               2349 
    962500   2030.9716      260125.5      -201734.8       14214.652     -187520.15      1.5449442      19683               2349 
    963000   2072.4427      275757.44     -201773.81      14504.906     -187268.9       1.5449442      19683               2349 
    963500   2066.4127      258758.64     -201753.76      14462.702     -187291.06      1.5449442      19683               2349 
    964000   2036.9361      273933        -201777.15      14256.398     -187520.76      1.5449442      19683               2349 
    964500   2021.2681      261885.05     -201910.34      14146.738     -187763.6       1.5449442      19683               2349 
    965000   1997.6954      276169.01     -201919.34      13981.754     -187937.59      1.5449442      19683               2349 
    965500   2028.0502      264708.94     -202273.71      14194.205     -188079.51      1.5449442      19683               2349 
    966000   2004.5521      261484.87     -202247.25      14029.744     -188217.51      1.5449442      19683               2349 
    966500   1976.2942      256837.76     -202184         13831.969     -188352.04      1.5449442      19683               2349 
    967000   1984.5542      258322.95     -202310.42      13889.78      -188420.64      1.5449442      19683               2349 
    967500   1971.154       258486.2      -202309.06      13795.992     -188513.07      1.5449442      19683               2349 
    968000   1956.2217      267426.05     -202240.64      13691.482     -188549.16      1.5449442      19683               2349 
    968500   1982.5899      259011.21     -202376.54      13876.032     -188500.51      1.5449442      19683               2349 
    969000   1976.7236      267680.74     -202142.61      13834.974     -188307.64      1.5449442      19683               2349 
    969500   2025.677       253968.77     -202149.44      14177.596     -187971.85      1.5449442      19683               2349 
    970000   2072.0969      252301.23     -202236.43      14502.486     -187733.94      1.5449442      19683               2349 
    970500   2089.5485      262022.35     -202295.53      14624.629     -187670.9       1.5449442      19683               2349 
    971000   2031.4471      272763.47     -201956.21      14217.98      -187738.23      1.5449442      19683               2349 
    971500   2014.8327      261658.32     -202051.39      14101.697     -187949.69      1.5449442      19683               2349 
    972000   1970.0006      266494.1      -201952.2       13787.92      -188164.28      1.5449442      19683               2349 
    972500   2018.0358      269901.96     -202368.19      14124.115     -188244.07      1.5449442      19683               2349 
    973000   1994.1677      274390.08     -202227.23      13957.064     -188270.17      1.5449442      19683               2349 
    973500   1976.9632      259734.42     -202107.43      13836.651     -188270.78      1.5449442      19683               2349 
    974000   1979.3494      265545.54     -202070.41      13853.351     -188217.06      1.5449442      19683               2349 
    974500   2021.9405      248221.49     -202278.51      14151.444     -188127.06      1.5449442      19683               2349 
    975000   2021.5304      259659.16     -202295.48      14148.574     -188146.91      1.5449442      19683               2349 
    975500   2043.3026      261998.53     -202498.38      14300.956     -188197.43      1.5449442      19683               2349 
    976000   1970.4794      252169.25     -202061.92      13791.271     -188270.65      1.5449442      19683               2349 
    976500   1922.3104      249002.77     -201865.16      13454.139     -188411.02      1.5449442      19683               2349 
    977000   1954.4849      253522.99     -202322.23      13679.326     -188642.9       1.5449442      19683               2349 
    977500   1927.1125      253221.71     -202301.32      13487.748     -188813.57      1.5449442      19683               2349 
    978000   1989.2105      257691.62     -202717.41      13922.369     -188795.04      1.5449442      19683               2349 
    978500   1947.2735      272277.59     -202196.87      13628.854     -188568.02      1.5449442      19683               2349 
    979000   2029.0611      249324.47     -202444.62      14201.281     -188243.34      1.5449442      19683               2349 
    979500   1997.7553      263410.88     -202058.84      13982.174     -188076.66      1.5449442      19683               2349 
    980000   2022.2258      258843.96     -202129.66      14153.441     -187976.22      1.5449442      19683               2349 
    980500   2051.1472      263881.6      -202278.03      14355.861     -187922.17      1.5449442      19683               2349 
    981000   1995.008       267283.4      -201902.03      13962.945     -187939.08      1.5449442      19683               2349 
    981500   2026.6524      258638.02     -202205.5       14184.422     -188021.08      1.5449442      19683               2349 
    982000   2004.93        257224.63     -202203.76      14032.389     -188171.37      1.5449442      19683               2349 
    982500   1979.0839      249234.88     -202284.06      13851.493     -188432.56      1.5449442      19683               2349 
    983000   1974.9846      253778.41     -202530.92      13822.802     -188708.12      1.5449442      19683               2349 
    983500   1945.7628      266119.93     -202421.44      13618.281     -188803.16      1.5449442      19683               2349 
    984000   1975.3452      254191.29     -202507.79      13825.326     -188682.46      1.5449442      19683               2349 
    984500   2001.6178      250529.98     -202509.41      14009.207     -188500.2       1.5449442      19683               2349 
    985000   1984.6319      259871.56     -202251.8       13890.323     -188361.48      1.5449442      19683               2349 
    985500   1981.4572      266965.32     -202148.62      13868.104     -188280.51      1.5449442      19683               2349 
    986000   2018.9361      255175.57     -202301.05      14130.416     -188170.63      1.5449442      19683               2349 
    986500   1973.5303      248622.34     -201897.81      13812.624     -188085.18      1.5449442      19683               2349 
    987000   2035.4633      262011.08     -202264.72      14246.089     -188018.63      1.5449442      19683               2349 
    987500   2034.743       264392.07     -202311.62      14241.048     -188070.57      1.5449442      19683               2349 
    988000   1974.0089      267850.56     -202046.84      13815.974     -188230.87      1.5449442      19683               2349 
    988500   1993.755       258778.25     -202445.65      13954.175     -188491.47      1.5449442      19683               2349 
    989000   1926.2139      269578.05     -202200.04      13481.459     -188718.58      1.5449442      19683               2349 
    989500   1937.7535      259605.15     -202356.11      13562.224     -188793.88      1.5449442      19683               2349 
    990000   2003.1171      257006.3      -202741.89      14019.7       -188722.19      1.5449442      19683               2349 
