LAMMPS data file - Pure SiO2 from sol-gel (pH 7), Vashishta format

300 atoms
2 atom types

0.000000 27.000000 xlo xhi
0.000000 27.000000 ylo yhi
0.000000 27.000000 zlo zhi

Masses

1 28.0855  # Si
2 15.9994  # O

Atoms # charge

1 1 0.0000 2.483641 2.379212 3.577993
2 2 0.0000 3.846177 3.207283 3.293167
3 2 0.0000 1.217461 3.449650 3.600009
4 2 0.0000 13.188478 1.995468 0.304294
5 2 0.0000 11.991221 4.005990 1.577641
6 1 0.0000 11.917921 3.037898 0.269547
7 2 0.0000 13.308030 1.651468 8.034495
8 1 0.0000 4.639875 10.017536 2.610903
9 1 0.0000 3.925107 12.526488 7.153481
10 2 0.0000 6.116095 10.532105 3.218994
11 2 0.0000 5.431247 12.071680 7.174164
12 2 0.0000 13.492999 7.235086 8.369110
13 1 0.0000 9.242292 12.634526 8.254921
14 1 0.0000 10.750166 10.796307 5.985965
15 1 0.0000 13.306798 8.727597 7.400993
16 2 0.0000 8.267871 10.661774 1.653721
17 2 0.0000 7.926437 11.771062 8.696137
18 2 0.0000 10.719696 11.436109 4.442052
19 2 0.0000 10.379396 11.957516 7.174470
20 1 0.0000 7.329564 11.513167 0.495295
21 2 0.0000 3.416358 4.313104 11.981548
22 2 0.0000 4.266355 2.276193 14.240855
23 1 0.0000 1.921051 4.591387 11.292167
24 1 0.0000 4.931497 1.347647 15.443203
25 2 0.0000 2.629805 1.228134 10.037120
26 2 0.0000 1.213317 3.929026 9.925066
27 2 0.0000 5.230468 0.803493 10.640480
28 2 0.0000 0.697734 4.875477 12.380904
29 2 0.0000 3.662465 0.375701 15.752905
30 1 0.0000 3.739485 0.134188 10.498885
31 1 0.0000 7.545583 5.417322 16.445449
32 2 0.0000 10.467485 1.903840 14.196411
33 1 0.0000 11.065568 3.219476 14.812154
34 2 0.0000 12.717258 3.536245 14.970444
35 2 0.0000 8.110316 4.147178 17.321215
36 2 0.0000 11.613320 3.788846 11.706699
37 1 0.0000 13.077948 4.513097 11.619710
38 1 0.0000 10.711494 6.832050 13.706521
39 2 0.0000 4.354244 12.805827 10.347931
40 1 0.0000 3.096172 12.548007 11.348331
41 2 0.0000 4.859897 8.976870 12.430181
42 2 0.0000 5.428022 11.901086 15.487365
43 2 0.0000 2.175126 11.659036 10.366244
44 2 0.0000 3.488688 11.621911 12.684234
45 1 0.0000 4.109887 9.147258 11.034996
46 1 0.0000 4.574551 12.137676 16.876071
47 2 0.0000 4.623531 7.746431 10.340823
48 2 0.0000 8.826293 10.357345 12.735809
49 2 0.0000 10.420816 12.503936 9.451706
50 1 0.0000 7.822200 9.207095 13.193616
51 2 0.0000 6.934510 8.482633 11.980656
52 2 0.0000 12.560102 13.311823 14.525885
53 2 0.0000 6.910359 10.297117 14.056997
54 2 0.0000 12.334795 7.167257 13.812918
55 1 0.0000 1.757078 3.564720 23.407247
56 2 0.0000 3.407004 3.492521 23.094474
57 2 0.0000 4.728588 5.545689 20.437842
58 2 0.0000 6.151636 3.264179 24.685610
59 2 0.0000 0.624713 2.269487 23.199607
60 2 0.0000 1.804817 3.536414 25.047821
61 1 0.0000 5.938578 4.336683 20.454832
62 2 0.0000 6.751344 1.301666 22.619827
63 1 0.0000 7.009101 2.740904 23.383512
64 2 0.0000 7.322444 4.471419 21.633234
65 2 0.0000 12.041892 2.321015 18.590577
66 1 0.0000 13.062631 1.022718 18.844840
67 2 0.0000 5.576959 12.704681 24.113958
68 1 0.0000 1.343687 9.286703 19.558848
69 1 0.0000 3.037240 11.419773 25.605364
70 2 0.0000 0.743542 10.865296 19.263400
71 1 0.0000 4.777900 13.243248 22.729177
72 2 0.0000 9.985566 9.281705 25.929517
73 1 0.0000 9.845358 10.655209 25.004618
74 2 0.0000 11.236317 10.182748 24.096575
75 1 0.0000 1.852136 15.862273 5.309873
76 2 0.0000 1.748492 18.271863 7.696863
77 2 0.0000 6.345630 19.058449 1.353941
78 1 0.0000 6.312623 18.283869 7.876793
79 2 0.0000 4.731049 18.688613 8.261099
80 1 0.0000 5.190348 19.695449 0.385334
81 1 0.0000 1.894448 19.773488 8.672534
82 2 0.0000 3.923264 13.584226 8.375541
83 2 0.0000 0.217596 15.808336 5.667626
84 1 0.0000 7.390556 21.086185 5.500089
85 2 0.0000 4.567293 18.185349 0.135582
86 2 0.0000 6.882779 16.904138 8.654006
87 2 0.0000 8.698021 20.193294 5.805116
88 2 0.0000 11.768880 19.979662 5.499707
89 2 0.0000 3.962797 20.411033 1.195157
90 2 0.0000 2.422478 21.265479 8.137581
91 2 0.0000 0.853351 25.604544 1.424559
92 1 0.0000 1.741765 25.453979 2.839610
93 2 0.0000 3.223099 26.395078 2.830057
94 2 0.0000 1.349015 24.168104 4.037603
95 2 0.0000 6.494825 26.394267 6.837345
96 1 0.0000 9.283772 20.180832 1.557641
97 2 0.0000 13.258157 25.134253 2.212002
98 1 0.0000 8.037346 26.991523 6.955211
99 2 0.0000 10.593961 24.632225 1.144301
100 1 0.0000 11.579514 20.583398 3.911999
101 2 0.0000 7.114936 21.322889 3.982712
102 2 0.0000 10.271407 21.555591 4.102036
103 2 0.0000 9.957837 21.124725 0.256716
104 1 0.0000 11.715863 24.498827 2.387195
105 2 0.0000 8.131896 21.296684 1.851560
106 2 0.0000 12.751972 13.879146 0.074149
107 1 0.0000 1.748480 17.012609 11.009569
108 2 0.0000 1.678488 15.556215 10.165721
109 2 0.0000 3.067794 14.229351 15.243141
110 2 0.0000 1.201079 15.386081 13.618826
111 1 0.0000 1.760480 15.247166 15.157677
112 2 0.0000 1.986779 19.225275 10.456329
113 2 0.0000 0.455221 15.214089 16.175083
114 2 0.0000 0.107386 17.099063 11.384003
115 2 0.0000 9.045715 14.937323 12.108477
116 1 0.0000 11.704178 15.090071 15.847718
117 1 0.0000 8.810098 15.633529 13.605489
118 2 0.0000 8.119043 17.171176 13.773316
119 2 0.0000 9.927417 15.075444 15.709392
120 2 0.0000 12.922609 19.154033 12.745602
121 2 0.0000 11.940266 16.678146 15.875086
122 1 0.0000 11.878965 19.664305 11.566347
123 2 0.0000 13.217432 14.670652 11.766744
124 2 0.0000 12.942409 19.509497 10.232600
125 2 0.0000 4.965167 13.519403 17.802860
126 2 0.0000 0.497446 23.476206 17.595641
127 2 0.0000 6.041210 25.418253 13.613494
128 1 0.0000 0.786507 22.492354 16.337732
129 2 0.0000 2.064061 21.815781 15.543575
130 2 0.0000 13.390174 24.625648 13.393493
131 2 0.0000 8.120038 25.430812 12.001848
132 1 0.0000 7.634975 24.966014 13.538804
133 1 0.0000 4.847802 18.324455 23.737705
134 2 0.0000 4.945468 14.795019 22.151833
135 2 0.0000 3.403709 20.062754 24.656851
136 2 0.0000 8.571044 13.507628 21.750782
137 2 0.0000 11.400080 16.981436 21.003579
138 1 0.0000 11.416518 15.417978 21.559256
139 1 0.0000 7.903882 14.600134 20.689533
140 2 0.0000 10.526502 14.987201 22.895944
141 2 0.0000 8.441216 18.692980 25.084879
142 1 0.0000 9.632011 19.527272 24.363259
143 2 0.0000 9.254876 14.652827 19.693115
144 2 0.0000 9.204374 20.050110 22.860295
145 1 0.0000 2.596264 26.873682 20.388888
146 1 0.0000 4.307875 21.678333 24.681493
147 2 0.0000 3.200387 25.533904 21.162905
148 2 0.0000 3.950186 22.498959 26.068945
149 2 0.0000 5.474098 25.122914 18.885068
150 2 0.0000 3.988933 22.756469 23.336162
151 1 0.0000 6.470654 24.020060 19.625051
152 2 0.0000 6.860526 23.966527 21.204725
153 1 0.0000 8.777884 26.190937 25.943111
154 2 0.0000 11.647604 24.806247 20.487519
155 2 0.0000 13.345003 26.665864 26.069678
156 2 0.0000 7.478413 23.195112 18.506293
157 2 0.0000 7.715592 26.682712 24.726989
158 2 0.0000 12.595160 23.207523 22.271135
159 1 0.0000 7.513153 24.121106 22.681477
160 2 0.0000 8.488833 22.772154 22.784420
161 2 0.0000 10.390777 26.317374 25.708440
162 1 0.0000 12.364162 23.306658 20.633174
163 2 0.0000 13.397030 20.977574 18.037493
164 2 0.0000 15.832491 1.549739 6.646403
165 1 0.0000 14.317226 2.216566 6.859925
166 1 0.0000 14.416931 5.731449 2.953670
167 1 0.0000 19.267379 4.771769 3.942303
168 2 0.0000 18.659547 3.350943 4.629588
169 2 0.0000 18.175198 5.957358 3.472387
170 2 0.0000 20.223145 6.378690 1.307074
171 1 0.0000 20.976353 1.153223 4.463362
172 2 0.0000 21.619138 1.894099 3.140973
173 2 0.0000 20.879717 4.949190 4.288384
174 2 0.0000 22.006323 1.798098 5.607736
175 2 0.0000 23.121531 9.373086 8.853560
176 2 0.0000 13.571928 5.525758 1.538488
177 2 0.0000 17.082949 13.044571 1.775333
178 2 0.0000 14.794317 7.245236 3.487272
179 2 0.0000 18.465966 11.328141 3.459255
180 1 0.0000 17.376047 11.474692 2.192345
181 2 0.0000 16.740399 9.071270 6.863830
182 1 0.0000 17.302045 8.647609 8.302613
183 2 0.0000 16.071460 10.568734 2.672679
184 2 0.0000 19.186035 8.859039 2.009225
185 2 0.0000 18.940382 8.743944 8.373346
186 2 0.0000 16.353650 7.393237 8.745499
187 1 0.0000 20.336775 8.018295 1.254943
188 1 0.0000 22.854414 10.911616 8.190032
189 1 0.0000 15.884484 1.341711 15.350048
190 2 0.0000 16.146470 2.262327 14.050488
191 2 0.0000 14.808296 0.242532 14.671615
192 1 0.0000 22.722557 4.257703 15.897705
193 2 0.0000 22.428155 5.990175 15.299368
194 2 0.0000 26.073377 5.904863 11.369671
195 2 0.0000 25.863604 6.397284 15.966518
196 2 0.0000 23.347183 4.205144 17.449390
197 2 0.0000 14.322649 11.346931 14.580457
198 2 0.0000 15.657497 8.885278 14.822358
199 2 0.0000 18.095980 8.551365 13.589815
200 1 0.0000 17.303438 8.638281 15.044333
201 2 0.0000 18.743271 12.908616 11.240365
202 1 0.0000 19.114299 11.400602 11.908592
203 2 0.0000 19.643310 11.606975 13.416899
204 1 0.0000 14.227950 12.953173 15.215391
205 2 0.0000 20.068751 10.446350 10.915491
206 2 0.0000 17.068203 10.084906 9.032327
207 2 0.0000 13.517666 4.673626 13.297747
208 1 0.0000 24.367701 7.086219 16.059070
209 2 0.0000 24.511626 8.113992 14.871561
210 1 0.0000 22.999802 13.300121 15.878894
211 2 0.0000 24.556191 13.408878 16.432682
212 2 0.0000 25.867604 8.876638 10.995755
213 2 0.0000 26.020892 7.416841 13.474109
214 2 0.0000 22.243824 12.009496 15.232319
215 1 0.0000 25.760345 7.400772 11.839481
216 1 0.0000 17.534093 5.608723 25.133655
217 2 0.0000 16.252100 4.688478 25.197329
218 2 0.0000 18.411099 5.729565 26.523643
219 2 0.0000 14.638345 1.109239 19.462639
220 2 0.0000 24.069869 4.316307 22.630837
221 1 0.0000 24.698659 2.927527 22.110872
222 2 0.0000 23.810617 1.544616 21.929436
223 2 0.0000 22.381977 7.229121 24.478902
224 2 0.0000 18.059047 12.485163 21.284893
225 2 0.0000 16.335370 9.331068 20.300772
226 2 0.0000 16.781904 11.846366 19.141828
227 1 0.0000 15.897687 10.520253 19.135783
228 1 0.0000 18.281157 12.242042 19.779572
229 2 0.0000 23.978043 10.606085 22.166790
230 1 0.0000 22.986392 8.118543 25.744184
231 1 0.0000 23.432944 11.672491 21.046571
232 2 0.0000 22.738524 11.086188 19.600267
233 1 0.0000 18.761004 17.528963 2.767940
234 2 0.0000 18.727503 19.032773 3.465195
235 1 0.0000 14.314392 13.880729 0.713146
236 2 0.0000 14.427753 13.975332 2.349514
237 2 0.0000 15.812802 13.595423 0.062085
238 2 0.0000 20.297356 16.993123 2.530918
239 2 0.0000 20.360563 14.454731 1.282710
240 1 0.0000 21.258604 16.055810 1.349809
241 2 0.0000 13.970460 23.803762 6.877871
242 1 0.0000 14.085607 25.410892 6.665711
243 2 0.0000 15.610248 25.949918 6.014948
244 2 0.0000 17.606720 24.197109 5.569298
245 1 0.0000 18.191490 23.201079 6.726545
246 2 0.0000 19.415724 22.241152 6.122190
247 2 0.0000 25.947778 23.311593 1.591570
248 1 0.0000 26.658553 22.738200 2.941460
249 2 0.0000 25.532433 22.779425 4.077868
250 1 0.0000 22.346650 26.165549 0.073659
251 2 0.0000 26.821891 21.146073 2.806378
252 2 0.0000 22.926906 25.236238 1.313663
253 2 0.0000 17.448271 19.007275 15.550428
254 1 0.0000 14.698050 15.262054 11.781587
255 2 0.0000 16.718490 19.424585 12.977669
256 1 0.0000 16.952212 20.106816 14.451525
257 2 0.0000 22.086111 15.903817 12.195010
258 1 0.0000 23.304942 14.894978 11.764510
259 2 0.0000 24.617693 15.871597 11.749723
260 2 0.0000 21.789415 13.884550 16.975758
261 2 0.0000 24.115512 20.122855 14.436405
262 1 0.0000 25.454888 26.624473 9.018864
263 1 0.0000 14.455170 21.713638 16.887974
264 2 0.0000 14.801054 26.441897 11.319346
265 2 0.0000 18.212943 21.070430 14.110054
266 1 0.0000 15.252579 25.685466 10.036144
267 1 0.0000 18.169639 24.306455 15.076833
268 2 0.0000 17.458154 21.890517 16.907416
269 2 0.0000 17.025563 23.981201 13.732699
270 2 0.0000 18.896073 22.902079 15.561618
271 2 0.0000 18.187885 25.854600 15.557735
272 2 0.0000 16.654029 26.477586 9.714816
273 1 0.0000 14.578558 24.005339 14.371777
274 2 0.0000 15.616674 22.839776 17.556674
275 2 0.0000 26.904831 25.789862 9.432387
276 2 0.0000 24.349822 22.183045 12.473862
277 1 0.0000 24.760977 21.507801 13.895761
278 2 0.0000 16.567609 15.184886 18.734838
279 1 0.0000 14.909316 15.285668 18.399999
280 2 0.0000 14.885256 13.566158 18.631228
281 2 0.0000 18.926474 13.668044 19.146680
282 1 0.0000 25.056500 14.759887 25.295907
283 2 0.0000 25.979687 15.370552 24.154780
284 2 0.0000 23.833041 15.771788 25.665771
285 2 0.0000 25.612732 13.675733 26.366006
286 1 0.0000 18.304268 22.089228 18.538052
287 2 0.0000 19.294591 20.823333 18.949723
288 2 0.0000 16.151700 26.239808 25.808230
289 2 0.0000 17.186871 22.633933 19.643974
290 1 0.0000 14.558762 25.591798 26.241132
291 1 0.0000 22.957125 24.953484 23.709862
292 2 0.0000 21.428355 24.775719 23.324068
293 2 0.0000 23.700206 23.479439 24.032033
294 1 0.0000 22.810599 21.008742 20.348548
295 2 0.0000 25.865678 23.537695 23.830373
296 1 0.0000 26.248563 23.231545 22.180980
297 2 0.0000 25.466010 21.898660 21.702986
298 1 0.0000 25.174708 20.626299 26.970978
299 2 0.0000 23.431543 22.401089 20.973643
300 2 0.0000 22.526959 21.023822 18.735518
