LAMMPS data file - pH=7.0, 39 Si(OH)4 + 61 Si(OH)3O- + 400 H2O + 61 H3O+

2283 atoms
3 atom types

0.0 37.183304 xlo xhi
0.0 37.183304 ylo yhi
0.0 37.183304 zlo zhi

Masses

1 28.0855  # Si
2 15.9994  # O
3 1.0079  # H

Atoms # charge

1 2 0.0 26.470715 8.588033 21.646603
2 3 0.0 26.623805 8.411683 22.598372
3 3 0.0 26.611858 9.542190 21.473217
4 3 0.0 25.544006 8.358302 21.425619
5 2 0.0 30.384622 14.221245 22.267953
6 3 0.0 29.859869 13.433260 22.427057
7 3 0.0 30.014557 14.599157 21.466807
8 1 0.0 28.442330 23.705261 19.437852
9 2 0.0 29.131455 23.425878 20.888353
10 2 0.0 27.570975 25.081109 19.506262
11 2 0.0 27.462984 22.460465 19.052801
12 2 0.0 29.603908 23.853591 18.303993
13 3 0.0 29.747613 23.526671 20.159113
14 3 0.0 28.506761 25.183755 19.694323
15 3 0.0 28.384891 22.226271 19.182577
16 2 0.0 0.683220 23.893864 4.486579
17 3 0.0 1.101608 24.325923 3.738330
18 3 0.0 1.381957 23.814117 5.140037
19 2 0.0 15.901884 35.004307 26.967044
20 3 0.0 16.513591 35.742938 26.924157
21 3 0.0 15.637217 34.857770 26.055958
22 1 0.0 23.406103 8.437174 9.971697
23 2 0.0 21.859866 8.529002 9.464136
24 2 0.0 23.488452 7.487473 11.293888
25 2 0.0 23.946450 9.930111 10.340565
26 2 0.0 24.329644 7.802109 8.788201
27 3 0.0 22.475794 8.163930 8.824641
28 3 0.0 23.146494 7.057849 10.506431
29 3 0.0 23.663359 9.814446 9.430575
30 3 0.0 23.398650 7.892319 8.572071
31 2 0.0 31.244639 6.611707 23.563549
32 3 0.0 32.013723 6.911723 23.073548
33 3 0.0 31.607906 6.163603 24.330907
34 2 0.0 14.322079 25.283061 10.131357
35 3 0.0 14.311789 26.004250 10.764903
36 3 0.0 13.495865 25.372992 9.650854
37 2 0.0 25.001514 30.326369 36.317323
38 3 0.0 25.312750 29.441319 36.520837
39 3 0.0 24.272284 30.470682 36.924775
40 1 0.0 17.682428 3.907187 35.048994
41 2 0.0 18.778701 3.694735 33.861581
42 2 0.0 16.728763 5.178532 34.686911
43 2 0.0 18.454058 4.190282 36.456596
44 2 0.0 16.768191 2.565197 35.190889
45 3 0.0 18.195121 2.947748 34.013380
46 3 0.0 16.709246 4.461887 34.048445
47 3 0.0 18.656298 3.346614 36.045593
48 2 0.0 33.754788 18.417874 36.101999
49 3 0.0 34.658224 18.680790 35.911529
50 3 0.0 33.829689 17.827218 36.855069
51 1 0.0 26.013168 1.238478 28.210254
52 2 0.0 25.063626 2.508145 27.831815
53 2 0.0 25.178184 37.037552 28.001430
54 2 0.0 26.486241 1.358296 29.765485
55 2 0.0 27.324620 1.233224 27.242284
56 3 0.0 25.863260 2.428755 27.306571
57 3 0.0 25.275759 0.392182 27.212313
58 3 0.0 26.751944 2.089551 29.203108
59 1 0.0 9.855862 13.236378 2.735513
60 2 0.0 11.377443 12.697065 2.960972
61 2 0.0 8.875328 12.582955 3.861786
62 2 0.0 9.340888 12.804786 1.250444
63 2 0.0 9.829787 14.860706 2.868850
64 3 0.0 11.271104 13.649146 3.022892
65 3 0.0 9.595987 13.113255 4.209684
66 3 0.0 10.121386 13.363600 1.262697
67 2 0.0 2.132524 20.266550 17.973857
68 3 0.0 1.290152 20.652889 18.224362
69 3 0.0 2.543977 20.928792 17.413730
70 2 0.0 20.212496 1.796119 23.625746
71 3 0.0 20.534065 0.979801 24.015385
72 3 0.0 19.696039 2.208167 24.322229
73 2 0.0 2.665928 16.123936 1.533826
74 3 0.0 1.998938 16.427154 2.154135
75 3 0.0 2.170532 15.657270 0.856769
76 2 0.0 36.581119 10.184502 33.336668
77 3 0.0 36.212033 11.068948 33.131901
78 3 0.0 0.097602 10.281373 34.015868
79 3 0.0 36.977574 9.809125 32.522840
80 2 0.0 24.050827 16.858116 7.511096
81 3 0.0 24.113094 16.228330 6.762837
82 3 0.0 24.650020 16.561139 8.227457
83 3 0.0 23.130414 16.862232 7.847582
84 2 0.0 12.661942 4.466009 8.435864
85 3 0.0 12.985711 3.880988 7.747006
86 3 0.0 13.292970 5.189256 8.453653
87 2 0.0 20.632565 26.005894 15.845030
88 3 0.0 21.050813 26.274875 15.023861
89 3 0.0 21.098195 25.206594 16.101754
90 2 0.0 0.981704 7.937499 20.112139
91 3 0.0 1.162951 8.314393 19.248021
92 3 0.0 1.211564 8.634001 20.731534
93 2 0.0 26.140423 36.857055 16.010264
94 3 0.0 25.472723 36.166594 16.204792
95 3 0.0 25.934600 0.473055 16.538610
96 3 0.0 26.094499 37.084634 15.058161
97 2 0.0 18.211140 30.791509 0.868493
98 3 0.0 18.036464 29.894605 0.574126
99 3 0.0 19.126167 30.775758 1.158456
100 2 0.0 21.296609 15.937473 23.837360
101 3 0.0 21.776862 15.672630 24.625278
102 3 0.0 20.396181 15.643844 23.994237
103 2 0.0 13.315244 28.585882 26.631477
104 3 0.0 14.007340 28.322209 27.242279
105 3 0.0 12.614827 27.944095 26.769773
106 1 0.0 4.306350 10.782345 22.514062
107 2 0.0 3.398736 11.831390 21.658118
108 2 0.0 5.872954 11.224496 22.429476
109 2 0.0 4.130786 9.283518 21.897949
110 2 0.0 3.822925 10.789975 24.070707
111 3 0.0 3.179668 11.772572 22.590936
112 3 0.0 5.286770 11.879569 22.815309
113 3 0.0 3.320676 9.689112 22.215463
114 3 0.0 3.338170 11.383438 23.492422
115 2 0.0 35.993064 33.521058 28.685774
116 3 0.0 35.719454 33.801602 27.809399
117 3 0.0 36.234968 34.334612 29.134340
118 2 0.0 18.062887 32.040054 34.794775
119 3 0.0 18.052200 32.662090 34.063641
120 3 0.0 18.210576 32.584299 35.571682
121 2 0.0 20.006877 16.488730 35.414171
122 3 0.0 19.562755 16.515450 36.264843
123 3 0.0 20.700200 17.149077 35.483780
124 1 0.0 3.824408 15.532224 28.390015
125 2 0.0 4.406321 14.223854 27.611268
126 2 0.0 4.763810 16.822948 28.060691
127 2 0.0 3.826715 15.254185 29.996125
128 2 0.0 2.300784 15.827907 27.891976
129 3 0.0 3.508690 14.470002 27.376170
130 3 0.0 4.351400 16.415511 27.295503
131 3 0.0 3.293858 14.645111 29.479704
132 1 0.0 27.095271 32.139596 18.689425
133 2 0.0 25.913607 32.846562 19.561647
134 2 0.0 27.547924 30.750863 19.412907
135 2 0.0 28.375085 33.144464 18.593429
136 2 0.0 26.544467 31.816495 17.189718
137 3 0.0 25.672886 32.621087 18.660085
138 3 0.0 26.625259 30.789692 19.150644
139 3 0.0 27.558738 33.490950 18.225836
140 2 0.0 31.313045 0.366074 2.737529
141 3 0.0 31.413935 0.042155 3.635581
142 3 0.0 31.736082 1.227818 2.743534
143 2 0.0 9.138510 27.188599 32.798930
144 3 0.0 9.277541 26.820909 31.923102
145 3 0.0 8.235706 27.514602 32.782575
146 2 0.0 4.912602 29.168980 36.263535
147 3 0.0 4.419868 29.620853 35.574606
148 3 0.0 4.452494 29.393882 37.075520
149 2 0.0 9.326550 10.506117 11.165269
150 3 0.0 10.180733 10.717048 10.781239
151 3 0.0 9.462842 10.583170 12.112416
152 2 0.0 3.254144 22.846336 28.811842
153 3 0.0 4.001714 22.538243 28.294332
154 3 0.0 2.742445 22.054044 28.990835
155 2 0.0 16.681127 22.992495 2.185213
156 3 0.0 16.881805 22.082737 2.416878
157 3 0.0 17.537818 23.394039 2.022596
158 2 0.0 12.415084 27.559440 19.113010
159 3 0.0 13.210033 27.275677 19.570322
160 3 0.0 12.655510 28.396560 18.709248
161 2 0.0 30.110408 10.051850 29.568257
162 3 0.0 29.631109 10.333455 30.350926
163 3 0.0 30.438396 9.176957 29.788678
164 2 0.0 8.428323 32.086832 5.091510
165 3 0.0 8.390438 31.489980 5.842464
166 3 0.0 7.982410 31.613628 4.385224
167 1 0.0 33.682281 14.777577 14.091965
168 2 0.0 32.829477 14.153430 12.850971
169 2 0.0 32.656899 15.353274 15.220709
170 2 0.0 34.626653 15.989314 13.547213
171 2 0.0 34.616096 13.614289 14.748966
172 3 0.0 33.409488 13.532393 13.297626
173 3 0.0 32.570968 14.415304 15.035159
174 3 0.0 34.793900 15.133097 13.146564
175 2 0.0 14.913481 9.905697 25.739855
176 3 0.0 14.600438 10.806862 25.847121
177 3 0.0 15.537375 9.780461 26.458653
178 2 0.0 34.797173 35.321368 35.185802
179 3 0.0 34.642924 35.459299 34.248368
180 3 0.0 34.141374 34.669675 35.444305
181 2 0.0 33.448659 2.361296 26.820889
182 3 0.0 34.117075 2.683423 26.180690
183 3 0.0 32.803340 1.794609 26.348840
184 3 0.0 32.976812 3.130884 27.202328
185 2 0.0 31.747160 10.175014 31.116561
186 3 0.0 31.534338 9.481454 31.745275
187 3 0.0 32.486466 10.641244 31.513621
188 2 0.0 31.705422 8.768866 6.593417
189 3 0.0 31.071313 8.051000 6.658025
190 3 0.0 31.214330 9.548725 6.862206
191 1 0.0 9.127306 37.022586 26.865532
192 2 0.0 7.981582 0.120853 27.990226
193 2 0.0 8.849063 0.775196 25.560333
194 2 0.0 9.084771 35.453068 26.427694
195 2 0.0 10.593806 0.191314 27.483877
196 3 0.0 8.880805 0.303212 28.272614
197 3 0.0 8.994909 1.254210 26.379402
198 3 0.0 9.260914 35.610051 27.358247
199 2 0.0 3.124224 19.308448 7.220048
200 3 0.0 3.368945 18.519163 7.708660
201 3 0.0 2.656838 19.851710 7.858808
202 2 0.0 33.635728 26.456847 4.705158
203 3 0.0 34.314834 26.275058 5.358891
204 3 0.0 33.387656 25.592501 4.369053
205 2 0.0 9.872869 36.976314 19.380384
206 3 0.0 9.103042 36.476840 19.036450
207 3 0.0 10.637732 36.368480 19.457339
208 3 0.0 9.653769 0.142623 20.269297
209 2 0.0 8.327285 34.717073 21.378289
210 3 0.0 8.213830 33.814200 21.684145
211 3 0.0 7.720989 35.231431 21.916286
212 1 0.0 22.996646 0.128611 14.437685
213 2 0.0 21.381016 0.288016 14.291983
214 2 0.0 23.363443 35.753508 14.743830
215 2 0.0 23.526351 1.062510 15.664122
216 2 0.0 23.715774 0.593715 13.050806
217 3 0.0 21.885391 0.541744 13.515563
218 3 0.0 22.903029 35.906770 13.915501
219 3 0.0 23.086876 1.536116 14.954080
220 2 0.0 36.428474 31.520279 34.061946
221 3 0.0 36.650183 32.303445 33.552930
222 3 0.0 35.576873 31.722582 34.456217
223 2 0.0 18.106110 28.628806 21.052400
224 3 0.0 18.620397 28.106337 20.402065
225 3 0.0 18.493692 29.526593 21.116897
226 3 0.0 18.165151 28.193227 21.928291
227 2 0.0 13.827543 11.348066 30.924569
228 3 0.0 14.394668 11.578715 31.664009
229 3 0.0 13.150067 10.785673 31.307112
230 2 0.0 18.689225 5.117813 12.531874
231 3 0.0 19.228708 5.803096 12.933055
232 3 0.0 18.740161 5.292371 11.589253
233 2 0.0 1.153011 1.608367 16.700079
234 3 0.0 1.449858 2.099213 15.930305
235 3 0.0 0.235025 1.866500 16.810845
236 2 0.0 11.792333 27.045780 34.417415
237 3 0.0 12.212399 27.408469 35.200742
238 3 0.0 11.295194 26.290082 34.738932
239 2 0.0 30.522186 0.519829 10.018501
240 3 0.0 30.982664 1.091631 10.637051
241 3 0.0 30.728022 0.884469 9.154632
242 2 0.0 26.066363 17.169188 30.430133
243 3 0.0 26.062343 16.448982 31.064867
244 3 0.0 25.986313 17.962135 30.965320
245 2 0.0 16.277256 14.921604 31.978003
246 3 0.0 16.009128 15.211448 32.853045
247 3 0.0 16.739813 14.094190 32.129749
248 2 0.0 30.920756 16.630431 25.860237
249 3 0.0 31.811415 16.310342 25.699393
250 3 0.0 30.397111 15.834847 25.980412
251 2 0.0 24.086240 34.160827 4.991360
252 3 0.0 24.923517 33.874225 5.363418
253 3 0.0 24.177969 34.010017 4.047728
254 1 0.0 13.212038 10.952262 7.896902
255 2 0.0 11.783620 10.240374 8.228170
256 2 0.0 14.161777 10.906735 9.220844
257 2 0.0 12.958637 12.502899 7.463067
258 2 0.0 13.944117 10.159040 6.675526
259 3 0.0 12.284061 9.834133 7.516744
260 3 0.0 13.889614 10.048757 8.887075
261 3 0.0 12.531831 11.850081 6.903366
262 1 0.0 18.840557 36.879272 10.528001
263 2 0.0 17.808491 0.266947 9.402957
264 2 0.0 20.008785 36.005994 9.800315
265 2 0.0 18.029729 35.933105 11.578822
266 2 0.0 19.515222 0.944435 11.329910
267 3 0.0 18.252572 0.939408 9.924673
268 3 0.0 19.956597 36.923838 9.523838
269 3 0.0 17.723166 36.841580 11.530942
270 2 0.0 2.269108 10.035875 1.139203
271 3 0.0 2.940491 10.721991 1.129722
272 3 0.0 2.715846 9.266961 1.500862
273 2 0.0 7.763142 3.815844 23.444971
274 3 0.0 7.084599 3.598859 24.088474
275 3 0.0 8.114282 2.965875 23.169559
276 2 0.0 34.951922 32.720849 32.408439
277 3 0.0 34.502957 32.117295 33.004889
278 3 0.0 34.301415 33.401195 32.219838
279 2 0.0 18.088867 20.174388 13.252125
280 3 0.0 18.817435 20.147681 13.876686
281 3 0.0 17.774000 19.268438 13.210728
282 2 0.0 23.482197 11.020384 29.632622
283 3 0.0 23.446780 10.068781 29.754266
284 3 0.0 23.129501 11.163668 28.751331
285 2 0.0 34.176844 18.568737 1.222434
286 3 0.0 34.636344 18.978720 1.958895
287 3 0.0 33.577210 19.247807 0.904783
288 2 0.0 7.766461 21.984122 35.360169
289 3 0.0 7.460217 22.731578 35.878940
290 3 0.0 8.299015 21.469323 35.970881
291 1 0.0 24.070948 21.537834 34.354650
292 2 0.0 23.528184 21.733169 35.879166
293 2 0.0 25.697496 21.642758 34.339368
294 2 0.0 23.442484 22.700772 33.400968
295 2 0.0 23.615629 20.074637 33.799096
296 3 0.0 23.303069 20.893016 35.472883
297 3 0.0 25.341491 20.938438 34.885988
298 3 0.0 22.796635 22.132441 33.826972
299 3 0.0 23.335744 20.273290 34.695645
300 2 0.0 18.074719 15.538955 9.948403
301 3 0.0 18.679806 14.819086 9.755377
302 3 0.0 17.393120 15.467263 9.276181
303 2 0.0 30.926741 2.706463 7.252542
304 3 0.0 30.729057 1.800563 6.935263
305 3 0.0 31.848330 2.934528 7.009520
306 3 0.0 30.840710 2.727466 8.228533
307 2 0.0 20.969778 34.926562 24.828675
308 3 0.0 20.989974 33.983033 24.652767
309 3 0.0 20.066307 35.101099 25.102310
310 2 0.0 28.959854 18.310239 10.121325
311 3 0.0 28.440841 17.952299 9.397374
312 3 0.0 29.105292 19.228534 9.882197
313 1 0.0 34.382300 27.943864 17.182434
314 2 0.0 33.141422 27.907819 16.126109
315 2 0.0 35.726433 27.369019 16.461489
316 2 0.0 34.021860 27.019636 18.475796
317 2 0.0 34.639486 29.478983 17.666340
318 3 0.0 33.361712 28.779104 16.463651
319 3 0.0 35.342276 28.143841 16.044747
320 3 0.0 33.418609 27.749551 18.317958
321 3 0.0 33.921477 29.366184 17.039172
322 1 0.0 36.803261 27.740202 29.349589
323 2 0.0 1.128566 27.404473 29.867548
324 2 0.0 36.880062 28.508743 27.914198
325 2 0.0 36.055094 28.695440 30.438013
326 2 0.0 35.966017 26.352151 29.178596
327 3 0.0 0.563760 26.638827 29.739566
328 3 0.0 0.086726 27.631599 27.926140
329 3 0.0 36.339027 27.842293 30.774348
330 3 0.0 36.870515 26.245617 29.482133
331 2 0.0 0.531699 2.221074 2.683804
332 3 0.0 36.787326 2.108961 2.903908
333 3 0.0 0.992134 1.609541 3.263137
334 2 0.0 2.902098 4.519513 12.065996
335 3 0.0 2.192821 3.946056 12.365451
336 3 0.0 2.964218 5.198506 12.741799
337 2 0.0 27.907513 9.386511 17.961752
338 3 0.0 28.796612 9.570880 17.593090
339 3 0.0 27.920094 9.562781 18.925687
340 3 0.0 27.691494 8.442115 17.813925
341 2 0.0 37.150688 33.754347 0.745241
342 3 0.0 0.839581 33.614716 0.369243
343 3 0.0 36.703111 34.319778 0.111552
344 2 0.0 4.564819 17.500183 14.927063
345 3 0.0 5.363459 18.006565 14.761681
346 3 0.0 3.854287 18.058857 14.603600
347 2 0.0 32.362716 2.447480 1.650125
348 3 0.0 31.441513 2.609182 1.433704
349 3 0.0 32.748944 2.124743 0.832648
350 2 0.0 0.114615 9.782864 18.812394
351 3 0.0 36.488895 9.759504 19.328663
352 3 0.0 0.007517 10.539427 18.231238
353 2 0.0 34.666265 10.571492 13.195872
354 3 0.0 34.965949 10.655974 14.103976
355 3 0.0 34.271248 11.422519 12.992615
356 2 0.0 36.570350 34.266919 6.451586
357 3 0.0 35.691927 34.141217 6.085291
358 3 0.0 37.110034 33.603180 6.015935
359 1 0.0 21.670283 34.419332 11.360537
360 2 0.0 22.240554 35.633863 10.435007
361 2 0.0 22.421874 33.030202 10.957635
362 2 0.0 20.066279 34.259120 11.118874
363 2 0.0 21.952426 34.754143 12.930631
364 3 0.0 22.365969 35.750321 11.379628
365 3 0.0 23.001077 33.728822 11.270773
366 3 0.0 20.342710 35.115695 11.452736
367 1 0.0 5.507711 19.886229 1.560798
368 2 0.0 6.053756 20.323960 0.088682
369 2 0.0 5.687257 21.130056 2.598852
370 2 0.0 6.359183 18.603863 2.096927
371 2 0.0 3.930648 19.487035 1.458732
372 3 0.0 5.128030 20.071609 0.119497
373 3 0.0 5.126618 21.311747 1.841044
374 3 0.0 5.884909 18.460855 1.274605
375 3 0.0 4.334711 19.758885 0.631428
376 1 0.0 13.563874 17.381001 27.467059
377 2 0.0 13.448270 15.755402 27.436004
378 2 0.0 14.727043 17.862864 26.431807
379 2 0.0 13.942175 17.870091 28.975229
380 2 0.0 12.138007 18.035646 27.025194
381 3 0.0 12.647966 16.223871 27.187709
382 3 0.0 14.003837 17.375089 26.030998
383 3 0.0 13.118087 17.383245 28.901333
384 2 0.0 31.423234 25.636917 21.704697
385 3 0.0 31.481451 24.708952 22.014362
386 3 0.0 30.526216 25.795990 21.343511
387 3 0.0 32.082107 25.776570 20.992810
388 2 0.0 4.054917 13.252858 10.208776
389 3 0.0 4.638054 13.741345 9.590931
390 3 0.0 4.564403 12.521243 10.615670
391 3 0.0 3.303309 12.875626 9.705605
392 2 0.0 16.988524 10.781306 29.578556
393 3 0.0 17.916729 10.921969 29.779179
394 3 0.0 16.608086 11.662655 29.569029
395 2 0.0 5.642260 25.766289 36.008936
396 3 0.0 5.225406 24.936839 36.253568
397 3 0.0 6.510394 25.728929 36.417038
398 2 0.0 26.165358 19.556549 19.622629
399 3 0.0 26.737977 20.285354 19.872729
400 3 0.0 26.694000 19.032060 19.016784
401 2 0.0 14.772233 27.261429 35.823447
402 3 0.0 14.774904 26.663435 35.072450
403 3 0.0 13.978740 27.030676 36.312039
404 2 0.0 10.618773 23.002774 20.955266
405 3 0.0 10.369257 23.245644 21.871321
406 3 0.0 11.076545 23.762379 20.538320
407 3 0.0 9.805374 22.803301 20.446354
408 2 0.0 17.787650 13.677369 27.113077
409 3 0.0 17.739787 13.607678 26.156807
410 3 0.0 16.899713 13.471190 27.414173
411 2 0.0 15.225683 36.172326 0.728118
412 3 0.0 15.450023 35.926359 1.628547
413 3 0.0 15.407597 37.113870 0.683380
414 1 0.0 32.773032 33.999261 6.801517
415 2 0.0 32.841413 35.580438 6.411513
416 2 0.0 34.036653 33.620679 7.759034
417 2 0.0 32.832982 33.101340 5.442457
418 2 0.0 31.381082 33.694587 7.593064
419 3 0.0 32.049237 35.312781 6.883124
420 3 0.0 33.449724 34.294718 8.109442
421 3 0.0 32.091341 33.708627 5.495109
422 2 0.0 6.025607 0.075869 11.950705
423 3 0.0 5.919072 36.542796 12.580826
424 3 0.0 6.593183 36.895902 11.266972
425 2 0.0 8.655814 7.618968 17.776328
426 3 0.0 9.270214 6.885840 17.694864
427 3 0.0 8.782482 7.940783 18.671867
428 2 0.0 16.758703 36.873645 35.919595
429 3 0.0 16.357095 36.830597 35.048700
430 3 0.0 16.826467 35.957689 36.198937
431 2 0.0 35.787801 9.447531 10.041859
432 3 0.0 35.009668 9.981762 10.217093
433 3 0.0 36.521272 9.979058 10.359821
434 2 0.0 28.881681 25.686103 29.420308
435 3 0.0 28.266053 25.516660 30.137170
436 3 0.0 28.966599 24.841814 28.971348
437 2 0.0 1.060223 13.115003 31.808720
438 3 0.0 0.616475 13.878453 31.432113
439 3 0.0 1.486717 12.691094 31.060386
440 1 0.0 28.574516 22.248670 4.295686
441 2 0.0 29.770915 23.353975 4.357587
442 2 0.0 28.193444 21.947025 2.739828
443 2 0.0 27.263091 22.823291 5.074709
444 2 0.0 29.070614 20.870390 5.010620
445 3 0.0 29.979777 22.507131 4.758625
446 3 0.0 29.102680 21.753707 2.979658
447 3 0.0 28.052746 22.742602 5.614648
448 3 0.0 29.718104 21.579117 5.002637
449 2 0.0 3.120613 32.239304 20.320061
450 3 0.0 2.610096 31.638997 19.771787
451 3 0.0 2.510847 32.513612 21.008930
452 2 0.0 1.143140 20.673142 20.566181
453 3 0.0 1.432126 21.401061 21.121357
454 3 0.0 0.200463 20.602427 20.733394
455 2 0.0 13.943938 20.018166 35.443796
456 3 0.0 13.688604 20.703948 36.065172
457 3 0.0 14.667550 20.403349 34.944177
458 2 0.0 23.313799 23.830519 4.733112
459 3 0.0 23.123328 24.219540 3.876383
460 3 0.0 22.462154 23.523888 5.052921
461 2 0.0 1.495057 24.442171 10.095121
462 3 0.0 1.689227 24.506504 9.157166
463 3 0.0 0.541282 24.341416 10.137111
464 1 0.0 34.101390 22.333064 7.976392
465 2 0.0 34.583644 23.566295 8.926903
466 2 0.0 33.532640 22.923263 6.567460
467 2 0.0 32.923419 21.495125 8.729482
468 2 0.0 35.365856 21.347570 7.681722
469 3 0.0 35.270504 22.934130 8.702867
470 3 0.0 34.448452 23.139382 6.757674
471 3 0.0 33.760926 21.527681 9.197587
472 2 0.0 8.463459 11.964980 31.376628
473 3 0.0 7.876038 11.347452 30.934818
474 3 0.0 9.234865 11.441470 31.605692
475 2 0.0 20.183766 13.038229 17.690509
476 3 0.0 21.027980 12.719909 17.362523
477 3 0.0 20.297496 13.084717 18.642614
478 2 0.0 32.852122 13.074888 9.808166
479 3 0.0 32.073911 12.730626 9.363788
480 3 0.0 33.203656 13.732241 9.203259
481 2 0.0 18.993139 21.145240 25.630346
482 3 0.0 19.763463 21.289003 25.041846
483 3 0.0 18.211344 21.594402 25.246353
484 3 0.0 19.185802 21.536819 26.507812
485 2 0.0 17.562695 7.955759 14.537977
486 3 0.0 16.840209 8.575075 14.411244
487 3 0.0 18.325013 8.509577 14.721709
488 2 0.0 31.825570 14.256768 26.826326
489 3 0.0 31.802528 13.534376 27.458163
490 3 0.0 30.997779 14.723141 26.963653
491 2 0.0 30.767891 5.548682 20.793906
492 3 0.0 30.495939 4.702234 21.156078
493 3 0.0 29.960493 6.066971 20.760966
494 2 0.0 30.812959 25.292576 3.859074
495 3 0.0 30.249000 24.901130 3.188015
496 3 0.0 31.691615 24.962530 3.657497
497 2 0.0 36.862771 36.114685 22.634064
498 3 0.0 0.395246 35.674675 23.098445
499 3 0.0 36.734559 35.592150 21.839004
500 2 0.0 22.430603 30.188581 27.783200
501 3 0.0 23.003917 30.165491 28.552862
502 3 0.0 21.562304 29.960006 28.122919
503 2 0.0 4.747601 26.000162 32.845288
504 3 0.0 4.572993 25.296893 33.474990
505 3 0.0 5.703335 26.090550 32.844310
506 2 0.0 32.888340 21.349840 24.545036
507 3 0.0 32.359504 21.343366 25.346216
508 3 0.0 32.278580 21.086174 23.852018
509 2 0.0 14.297139 21.152995 4.268404
510 3 0.0 13.377171 21.426962 4.282566
511 3 0.0 14.742071 21.773587 4.850213
512 2 0.0 13.744709 17.747423 33.049660
513 3 0.0 13.859470 16.852793 33.378394
514 3 0.0 14.037666 17.707669 32.136317
515 2 0.0 28.177561 36.959977 13.816701
516 3 0.0 29.009174 0.232983 14.062871
517 3 0.0 28.129530 36.106207 14.295417
518 3 0.0 28.184657 36.784088 12.852641
519 2 0.0 28.132324 36.892545 34.479513
520 3 0.0 28.909801 36.679533 33.958212
521 3 0.0 28.378598 36.671044 35.380561
522 2 0.0 4.013373 21.083134 19.299823
523 3 0.0 4.874251 21.021459 19.720163
524 3 0.0 4.024503 20.398572 18.626881
525 2 0.0 1.919121 28.612769 13.101523
526 3 0.0 2.818910 28.930118 13.207683
527 3 0.0 2.017265 27.718272 12.767094
528 2 0.0 14.514559 18.071350 0.700231
529 3 0.0 14.391615 17.804232 36.969679
530 3 0.0 13.981972 18.864681 0.792835
531 2 0.0 13.258663 33.768590 33.486656
532 3 0.0 12.517412 33.800938 32.846422
533 3 0.0 14.050334 33.404173 33.038485
534 3 0.0 13.012670 33.177244 34.228409
535 2 0.0 9.794457 14.513420 6.421962
536 3 0.0 10.110659 13.899250 7.088605
537 3 0.0 10.592126 14.850855 6.007883
538 2 0.0 11.662398 26.096681 10.961972
539 3 0.0 11.808423 26.746314 11.653531
540 3 0.0 10.737422 26.199562 10.726524
541 2 0.0 18.086172 4.843037 19.802023
542 3 0.0 18.281897 4.438720 18.953601
543 3 0.0 18.005125 5.779969 19.609171
544 2 0.0 1.100390 11.117834 10.931400
545 3 0.0 1.408818 10.392968 10.382727
546 3 0.0 0.715376 11.741827 10.311725
547 2 0.0 10.281170 18.590197 32.190491
548 3 0.0 10.943483 19.189577 31.838803
549 3 0.0 9.784550 18.302031 31.421122
550 2 0.0 6.094733 11.775831 5.270587
551 3 0.0 6.165534 10.892207 4.902082
552 3 0.0 5.862010 11.634745 6.191203
553 2 0.0 32.330200 11.364403 10.908361
554 3 0.0 32.969268 11.531190 10.211673
555 3 0.0 32.860252 11.092272 11.661083
556 2 0.0 18.166146 23.892053 32.914970
557 3 0.0 18.784578 23.847481 32.182062
558 3 0.0 17.305554 23.754402 32.512437
559 2 0.0 13.521120 34.669253 13.160929
560 3 0.0 12.853619 34.479985 12.497439
561 3 0.0 13.097043 35.288939 13.759050
562 2 0.0 34.497482 18.826057 7.776511
563 3 0.0 33.852314 19.096204 8.434067
564 3 0.0 33.999978 18.284372 7.159528
565 2 0.0 19.539429 0.403500 6.852660
566 3 0.0 20.396551 0.669419 6.511738
567 3 0.0 19.491480 36.644614 6.674959
568 2 0.0 4.344212 12.275081 18.665954
569 3 0.0 4.274694 13.044494 19.235842
570 3 0.0 4.220053 12.620561 17.778921
571 1 0.0 34.918238 19.739393 13.162954
572 2 0.0 33.400421 20.101311 13.634276
573 2 0.0 35.360511 18.308725 13.806758
574 2 0.0 35.938069 20.903699 13.674070
575 2 0.0 34.973954 19.643838 11.536711
576 3 0.0 33.523315 20.025430 12.685204
577 3 0.0 34.589580 18.275640 13.235644
578 3 0.0 35.241373 21.204153 13.085901
579 1 0.0 10.655211 31.098653 2.418044
580 2 0.0 9.525087 32.070528 1.758364
581 2 0.0 10.283051 30.814381 3.979321
582 2 0.0 12.112902 31.822742 2.330104
583 2 0.0 10.699806 29.686960 1.604389
584 3 0.0 9.618352 31.212798 1.337412
585 3 0.0 9.620637 30.528838 3.345860
586 3 0.0 11.685684 31.666807 1.484663
587 1 0.0 9.254128 6.773309 7.553328
588 2 0.0 9.780228 6.806705 9.095729
589 2 0.0 9.049136 5.226295 7.082554
590 2 0.0 10.352973 7.493720 6.588731
591 2 0.0 7.834174 7.566515 7.446296
592 3 0.0 8.944650 7.253773 8.942303
593 3 0.0 8.516728 5.495439 7.834687
594 3 0.0 9.988151 8.054301 7.277391
595 1 0.0 9.277703 17.986438 4.666727
596 2 0.0 7.791564 17.348401 4.869703
597 2 0.0 10.223193 17.573698 5.928707
598 2 0.0 9.164738 19.610239 4.580656
599 2 0.0 9.931318 17.413412 3.287839
600 3 0.0 8.251056 17.062380 4.076823
601 3 0.0 9.873381 16.834998 5.425165
602 3 0.0 8.678880 19.133302 3.903846
603 2 0.0 5.730117 2.557846 10.736410
604 3 0.0 5.400029 2.969570 9.910622
605 3 0.0 6.386139 3.156819 11.150255
606 3 0.0 6.168651 1.709693 10.515677
607 2 0.0 10.891402 6.369449 28.400587
608 3 0.0 10.263586 6.800363 27.815984
609 3 0.0 10.424294 5.597495 28.728456
610 1 0.0 7.152979 24.745017 15.988730
611 2 0.0 5.937361 24.484304 17.042866
612 2 0.0 6.882093 26.133896 15.179698
613 2 0.0 7.230432 23.506695 14.931631
614 2 0.0 8.562031 24.855171 16.800727
615 3 0.0 6.808266 24.562360 17.439138
616 3 0.0 6.956789 26.227174 16.132231
617 3 0.0 7.349901 23.262290 15.852279
618 2 0.0 35.598714 32.850180 12.048550
619 3 0.0 34.958486 33.537661 12.246233
620 3 0.0 36.440661 33.218233 12.326509
621 2 0.0 14.620919 30.355815 7.252749
622 3 0.0 14.713349 29.648361 7.895061
623 3 0.0 14.091567 29.974064 6.548723
624 2 0.0 13.858570 1.106105 13.139856
625 3 0.0 13.876788 1.911240 12.617338
626 3 0.0 13.744080 0.403626 12.495639
627 2 0.0 5.368145 19.111140 19.743390
628 3 0.0 5.271153 18.500196 20.477515
629 3 0.0 6.294580 19.049201 19.499500
630 1 0.0 0.880215 30.566755 27.814865
631 2 0.0 2.024560 31.162447 28.811122
632 2 0.0 36.750549 30.147193 28.684909
633 2 0.0 1.461972 29.254733 27.042169
634 2 0.0 0.467085 31.702648 26.721260
635 3 0.0 1.721791 31.769686 28.132011
636 3 0.0 36.995770 31.073611 28.741624
637 3 0.0 1.950727 30.066441 26.887738
638 3 0.0 1.139826 31.971537 27.351115
639 2 0.0 8.108777 25.349487 7.122078
640 3 0.0 8.143553 25.316797 6.143241
641 3 0.0 8.629630 26.119066 7.433302
642 3 0.0 8.506850 24.529502 7.482026
643 1 0.0 26.832998 13.163873 18.020401
644 2 0.0 25.899837 12.042650 17.293098
645 2 0.0 25.914603 14.440922 18.447715
646 2 0.0 27.997695 13.652705 16.990147
647 2 0.0 27.519856 12.519217 19.350643
648 3 0.0 26.344868 11.745156 18.089995
649 3 0.0 25.657113 13.605303 18.843997
650 3 0.0 28.007952 12.715773 17.199083
651 3 0.0 26.950203 11.923229 18.858815
652 2 0.0 23.769555 12.879531 20.787911
653 3 0.0 23.522750 12.446847 21.608564
654 3 0.0 24.005350 12.159921 20.197857
655 2 0.0 27.405294 6.451148 30.964534
656 3 0.0 26.629784 6.474044 31.529919
657 3 0.0 28.118297 6.773324 31.520798
658 2 0.0 19.926571 8.213123 33.124311
659 3 0.0 20.423307 7.432577 33.380438
660 3 0.0 20.030730 8.262706 32.171267
661 1 0.0 12.516966 4.974714 12.571136
662 2 0.0 11.946919 4.203620 13.889225
663 2 0.0 14.029439 4.458082 12.251109
664 2 0.0 12.538665 6.580845 12.848215
665 2 0.0 11.552843 4.656310 11.295995
666 3 0.0 11.435384 4.069762 13.087967
667 3 0.0 13.355262 3.774852 12.234290
668 3 0.0 11.672875 6.170460 12.908144
669 2 0.0 23.767472 32.026876 23.977952
670 3 0.0 23.063125 32.004996 23.326019
671 3 0.0 23.524477 32.741679 24.570919
672 2 0.0 26.702826 12.177906 22.676240
673 3 0.0 26.787651 11.979643 23.632220
674 3 0.0 27.357129 12.866428 22.434943
675 3 0.0 25.801473 12.520444 22.501224
676 2 0.0 4.310928 9.791794 26.799307
677 3 0.0 3.964026 10.651384 27.049035
678 3 0.0 5.263156 9.884165 26.878865
679 2 0.0 2.491616 34.912904 29.036501
680 3 0.0 1.567781 35.239483 29.053046
681 3 0.0 3.092305 35.666729 28.859524
682 3 0.0 2.583990 34.256392 28.314796
683 2 0.0 2.391733 6.075005 24.801434
684 3 0.0 3.328408 5.864863 24.792472
685 3 0.0 2.358258 7.017754 24.979491
686 2 0.0 27.872256 34.279572 33.545623
687 3 0.0 27.309273 33.804217 32.930247
688 3 0.0 27.753834 33.823282 34.381910
689 2 0.0 19.664540 25.371039 7.233120
690 3 0.0 20.442166 24.781813 7.140871
691 3 0.0 19.424657 25.435002 8.181152
692 3 0.0 18.911552 24.983464 6.739972
693 2 0.0 29.066268 2.752275 31.601517
694 3 0.0 28.848267 3.506547 32.153920
695 3 0.0 28.216578 2.371262 31.368160
696 2 0.0 9.773410 9.247417 13.944388
697 3 0.0 9.877890 8.710693 14.733445
698 3 0.0 9.255782 10.002397 14.233639
699 2 0.0 25.955600 15.767579 32.958507
700 3 0.0 26.844579 15.507201 32.706476
701 3 0.0 25.746626 15.211538 33.712661
702 1 0.0 31.972357 30.667471 22.450993
703 2 0.0 32.138524 32.216783 21.972538
704 2 0.0 32.694999 29.684514 21.370029
705 2 0.0 30.388277 30.296026 22.549076
706 2 0.0 32.667627 30.472559 23.912331
707 3 0.0 32.522154 32.013186 22.828678
708 3 0.0 33.275590 30.324973 21.787553
709 3 0.0 30.672378 31.015085 23.118146
710 2 0.0 10.221795 1.001137 14.240793
711 3 0.0 11.195758 0.917993 14.170909
712 3 0.0 10.006265 1.840590 14.698247
713 3 0.0 9.875863 0.252517 14.770226
714 2 0.0 11.046667 16.396733 23.040277
715 3 0.0 11.694202 16.319202 23.744754
716 3 0.0 10.968654 17.341355 22.887954
717 2 0.0 18.362738 28.177314 25.055505
718 3 0.0 19.004245 27.436830 25.032017
719 3 0.0 17.487529 27.849354 24.760797
720 3 0.0 18.663422 28.878243 24.440129
721 2 0.0 5.673448 23.393089 26.285606
722 3 0.0 6.515596 23.277978 26.731852
723 3 0.0 5.692774 22.756635 25.567168
724 2 0.0 32.082399 13.318361 29.418870
725 3 0.0 31.285643 12.821071 29.617573
726 3 0.0 32.037214 14.085372 29.994415
727 2 0.0 1.823594 30.219456 9.473845
728 3 0.0 0.941886 30.407959 9.803477
729 3 0.0 2.410319 30.511098 10.175486
730 2 0.0 3.836576 22.070674 23.475987
731 3 0.0 4.012359 22.043024 22.532623
732 3 0.0 3.227809 22.804776 23.585969
733 2 0.0 30.459236 36.166060 12.723154
734 3 0.0 30.779583 37.001681 13.070595
735 3 0.0 30.250239 36.351541 11.804722
736 2 0.0 6.244142 29.932941 28.658071
737 3 0.0 6.148283 30.079815 29.601914
738 3 0.0 5.350734 29.996737 28.312598
739 2 0.0 7.276384 29.827318 2.570911
740 3 0.0 8.019481 29.572076 3.156622
741 3 0.0 6.432624 29.565920 2.995341
742 3 0.0 7.364814 29.351025 1.719016
743 2 0.0 37.157719 22.993910 17.195927
744 3 0.0 36.515549 23.359021 16.582810
745 3 0.0 0.798360 22.983132 16.703384
746 2 0.0 19.938255 21.465936 32.348820
747 3 0.0 20.043692 22.195104 31.733356
748 3 0.0 20.203182 20.689685 31.849973
749 2 0.0 33.802265 5.106977 3.236444
750 3 0.0 33.438720 4.618817 2.494059
751 3 0.0 33.045082 5.548213 3.628341
752 2 0.0 33.531067 7.498336 5.431886
753 3 0.0 33.287692 7.172923 4.562130
754 3 0.0 33.853060 6.723028 5.897524
755 2 0.0 4.790538 8.262623 36.617128
756 3 0.0 4.955024 7.873419 35.755116
757 3 0.0 4.218505 7.632067 37.060724
758 2 0.0 26.043315 19.546529 23.600929
759 3 0.0 25.704797 18.741386 23.999363
760 3 0.0 26.758414 19.251519 23.032420
761 2 0.0 5.980759 9.044339 16.377403
762 3 0.0 6.587611 9.787485 16.410024
763 3 0.0 5.215687 9.336177 16.878498
764 2 0.0 4.148529 36.104454 35.705226
765 3 0.0 4.138675 36.359189 36.630760
766 3 0.0 4.627990 36.810867 35.266252
767 2 0.0 13.491657 24.229953 26.730868
768 3 0.0 14.188022 24.167388 26.073022
769 3 0.0 13.494238 23.374344 27.166213
770 2 0.0 34.691114 23.966831 31.536464
771 3 0.0 34.087494 24.141415 30.784424
772 3 0.0 35.004072 24.822138 31.898275
773 3 0.0 35.462926 23.456834 31.213029
774 2 0.0 5.610857 35.907015 29.935607
775 3 0.0 5.590217 36.864338 30.004207
776 3 0.0 5.511497 35.598752 30.839323
777 1 0.0 25.824903 28.109685 10.668226
778 2 0.0 25.707153 27.537775 9.146400
779 2 0.0 26.560246 29.564232 10.646657
780 2 0.0 26.698737 27.072455 11.572365
781 2 0.0 24.333476 28.264280 11.307481
782 3 0.0 24.869861 27.659720 9.599910
783 3 0.0 25.743718 29.514923 10.144213
784 3 0.0 25.900009 26.702871 11.188905
785 2 0.0 29.158378 34.084796 29.670111
786 3 0.0 28.468154 33.531839 29.296711
787 3 0.0 28.932247 34.156779 30.600317
788 2 0.0 8.458259 11.850823 33.979894
789 3 0.0 8.682806 11.044420 33.509902
790 3 0.0 7.634677 11.646391 34.428803
791 2 0.0 24.225322 9.981690 2.584255
792 3 0.0 25.054556 10.103911 2.116245
793 3 0.0 23.562908 9.931666 1.891215
794 2 0.0 30.447195 3.685746 15.970731
795 3 0.0 30.387056 3.489567 16.908545
796 3 0.0 30.151743 4.596075 15.895831
797 2 0.0 24.517056 13.330043 34.690970
798 3 0.0 24.054518 13.117243 33.877106
799 3 0.0 23.927834 13.931158 35.152573
800 2 0.0 8.861037 3.999049 34.862229
801 3 0.0 9.271132 4.365919 35.648885
802 3 0.0 7.951827 4.304861 34.899866
803 2 0.0 19.943064 4.226504 29.250405
804 3 0.0 19.664517 5.141550 29.332274
805 3 0.0 20.655900 4.134051 29.886737
806 2 0.0 5.043695 7.292908 23.394212
807 3 0.0 5.957315 6.989066 23.211511
808 3 0.0 5.015699 8.270664 23.334120
809 3 0.0 4.794395 7.022831 24.302677
810 2 0.0 10.727558 35.460641 15.073550
811 3 0.0 11.483796 36.033069 14.925123
812 3 0.0 10.275594 35.849214 15.826105
813 2 0.0 17.057726 22.679833 7.217413
814 3 0.0 18.015845 22.622748 7.236089
815 3 0.0 16.765975 21.779006 7.059325
816 2 0.0 31.023577 13.196573 24.954357
817 3 0.0 30.486551 13.793534 24.428201
818 3 0.0 31.589338 12.755930 24.316118
819 1 0.0 1.840802 21.132988 14.291518
820 2 0.0 1.515279 21.176415 15.888092
821 2 0.0 3.455070 21.112946 14.066485
822 2 0.0 1.208240 22.451705 13.571968
823 2 0.0 1.184621 19.790888 13.639526
824 3 0.0 1.163370 20.413964 15.422872
825 3 0.0 3.106759 20.375118 14.572341
826 3 0.0 0.571138 21.885952 14.014262
827 3 0.0 1.039817 19.896249 14.582675
828 2 0.0 14.886860 3.714607 4.473499
829 3 0.0 15.424543 4.396072 4.063496
830 3 0.0 14.248486 4.197884 5.003142
831 2 0.0 12.863636 19.215168 8.586505
832 3 0.0 12.466532 20.024832 8.915676
833 3 0.0 12.505888 18.525218 9.150052
834 2 0.0 23.520308 11.125892 25.722943
835 3 0.0 22.852223 11.412101 26.350118
836 3 0.0 23.788761 11.930485 25.273317
837 1 0.0 33.017043 8.787207 16.439668
838 2 0.0 33.645416 8.544092 17.923899
839 2 0.0 31.556039 8.070796 16.344165
840 2 0.0 34.010640 8.146740 15.317409
841 2 0.0 32.856076 10.387202 16.173199
842 3 0.0 33.516465 9.464569 17.683707
843 3 0.0 31.632876 8.746917 17.021332
844 3 0.0 34.402975 8.832623 15.862604
845 3 0.0 33.221521 10.153264 17.029542
846 2 0.0 27.282732 35.265928 22.989610
847 3 0.0 27.314013 35.094059 22.045638
848 3 0.0 26.818616 34.509964 23.356645
849 2 0.0 19.949278 11.881729 26.850712
850 3 0.0 19.985186 11.610156 25.930625
851 3 0.0 19.803396 12.829955 26.816270
852 1 0.0 35.686248 23.206050 22.871478
853 2 0.0 34.842547 22.053713 22.085865
854 2 0.0 36.090542 24.390522 21.827221
855 2 0.0 37.039687 22.553130 23.502983
856 2 0.0 34.772218 23.826834 24.069841
857 3 0.0 34.375842 22.474527 22.811608
858 3 0.0 35.147357 24.241825 21.926681
859 3 0.0 36.218499 22.168267 23.817834
860 3 0.0 34.349563 23.137070 23.552938
861 2 0.0 37.000196 27.855541 3.439130
862 3 0.0 36.884763 28.259918 4.302122
863 3 0.0 0.599304 27.307246 3.532957
864 2 0.0 32.216347 14.717219 35.761760
865 3 0.0 31.917235 15.482176 35.264797
866 3 0.0 32.454505 15.067871 36.623110
867 2 0.0 14.483062 26.632379 12.701706
868 3 0.0 14.722238 25.817436 12.254199
869 3 0.0 14.511964 26.411606 13.635528
870 2 0.0 36.614959 36.599742 14.715292
871 3 0.0 0.270098 36.139133 14.795619
872 3 0.0 35.953856 35.904724 14.753937
873 2 0.0 36.883035 3.922654 21.715187
874 3 0.0 36.685965 3.686433 22.624562
875 3 0.0 0.132652 3.146039 21.353182
876 1 0.0 21.611983 30.020492 0.446940
877 2 0.0 22.712815 31.168278 0.089650
878 2 0.0 22.375102 28.614992 0.761770
879 2 0.0 20.605193 29.820349 36.364062
880 2 0.0 20.754821 30.478348 1.755581
881 3 0.0 22.161274 31.358416 0.852048
882 3 0.0 22.611144 29.343382 1.340849
883 3 0.0 20.613743 30.703668 36.739929
884 1 0.0 16.984394 6.686728 26.252561
885 2 0.0 17.146708 7.057086 27.831608
886 2 0.0 18.078452 5.548862 25.846116
887 2 0.0 17.230849 8.023398 25.352853
888 2 0.0 15.481568 6.117568 25.979668
889 3 0.0 16.286106 6.712563 27.582072
890 3 0.0 17.460136 5.290055 26.533360
891 3 0.0 16.503588 8.082650 25.976696
892 2 0.0 27.555665 11.414214 10.424377
893 3 0.0 26.685553 11.518963 10.816209
894 3 0.0 28.095766 11.052404 11.130766
895 2 0.0 23.669908 33.625828 35.287335
896 3 0.0 23.765974 33.148822 36.114883
897 3 0.0 23.533068 32.940610 34.629042
898 2 0.0 17.734405 30.506907 26.495593
899 3 0.0 18.101302 29.832977 25.918701
900 3 0.0 16.783659 30.411063 26.403424
901 2 0.0 18.653680 33.781884 22.185581
902 3 0.0 17.711161 33.920910 22.303605
903 3 0.0 19.046967 34.090338 23.005204
904 2 0.0 30.294786 18.600704 21.168641
905 3 0.0 30.629581 19.307748 21.725060
906 3 0.0 30.375720 18.939563 20.274088
907 2 0.0 32.047981 23.948855 1.081208
908 3 0.0 32.656427 23.181501 1.044309
909 3 0.0 32.558885 24.768191 0.913682
910 3 0.0 31.652280 23.998228 1.976408
911 2 0.0 2.456304 35.071064 33.972584
912 3 0.0 2.626571 34.291249 33.439201
913 3 0.0 1.632035 34.877826 34.425177
914 2 0.0 36.586673 23.580925 36.580851
915 3 0.0 36.350698 23.865678 35.694944
916 3 0.0 35.881010 22.982724 36.837357
917 2 0.0 2.474236 15.233029 11.398962
918 3 0.0 1.778566 15.442101 10.771323
919 3 0.0 2.038992 14.708046 12.074651
920 2 0.0 15.346421 4.859600 29.193647
921 3 0.0 14.616601 5.267875 28.722188
922 3 0.0 14.926746 4.253302 29.808362
923 2 0.0 32.047721 16.879001 22.140782
924 3 0.0 32.344877 16.107693 21.652537
925 3 0.0 31.249139 16.588280 22.587266
926 2 0.0 31.907228 34.626135 24.377098
927 3 0.0 31.100726 34.156098 24.601197
928 3 0.0 32.084441 35.178378 25.142097
929 2 0.0 27.602468 4.357885 24.105044
930 3 0.0 26.685810 4.633765 24.177364
931 3 0.0 27.806825 3.974893 24.961289
932 2 0.0 29.912128 2.532727 34.942739
933 3 0.0 30.072942 1.717520 35.423547
934 3 0.0 30.736385 3.019899 35.012478
935 2 0.0 14.565718 16.056543 24.082176
936 3 0.0 13.879217 15.499371 24.456175
937 3 0.0 14.840656 15.597482 23.285136
938 2 0.0 11.843203 3.268638 20.528374
939 3 0.0 11.409262 4.073285 20.821357
940 3 0.0 12.348174 3.534845 19.756533
941 1 0.0 25.938590 13.241729 7.894705
942 2 0.0 25.357649 12.553015 6.536367
943 2 0.0 24.761642 13.299185 9.020934
944 2 0.0 26.446894 14.754367 7.562361
945 2 0.0 27.188174 12.360348 8.459158
946 3 0.0 26.100072 12.095468 6.937688
947 3 0.0 24.988921 12.417653 8.716230
948 3 0.0 26.890784 14.059874 7.070181
949 3 0.0 26.784064 12.023476 7.656156
950 2 0.0 18.183924 35.889183 32.878502
951 3 0.0 18.303936 35.095378 32.352127
952 3 0.0 18.747744 36.543431 32.459375
953 2 0.0 7.865417 30.430923 23.230080
954 3 0.0 8.308615 31.200455 23.594766
955 3 0.0 6.995405 30.439456 23.635796
956 2 0.0 14.217437 33.369312 21.416111
957 3 0.0 13.431989 33.757373 21.808641
958 3 0.0 14.090127 33.472960 20.470252
959 2 0.0 11.481380 19.801076 18.675586
960 3 0.0 12.002967 18.974001 18.741109
961 3 0.0 11.672068 20.230030 17.815332
962 3 0.0 11.750735 20.405085 19.398788
963 2 0.0 26.026333 11.074147 29.407148
964 3 0.0 25.347699 10.604907 29.897931
965 3 0.0 26.565367 11.492979 30.082146
966 1 0.0 7.703139 2.477498 31.767326
967 2 0.0 6.116753 2.812249 31.935314
968 2 0.0 7.883519 1.159043 30.826028
969 2 0.0 8.356404 2.192073 33.233162
970 2 0.0 8.455881 3.746626 31.074798
971 3 0.0 6.638399 3.510625 31.533125
972 3 0.0 7.434731 1.897623 30.408070
973 3 0.0 7.968398 3.063431 33.124600
974 3 0.0 7.512436 3.859764 31.211586
975 2 0.0 27.013530 7.024602 5.390890
976 3 0.0 26.065780 7.154762 5.471071
977 3 0.0 27.196130 7.154058 4.457349
978 1 0.0 1.963640 7.116384 34.413354
979 2 0.0 0.535435 7.367051 35.157866
980 2 0.0 3.165585 7.164483 35.513316
981 2 0.0 2.204237 8.277106 33.294544
982 2 0.0 1.949302 5.656894 33.687692
983 3 0.0 0.613275 6.525667 34.702220
984 3 0.0 2.503371 6.486285 35.665368
985 3 0.0 1.418458 7.741916 33.161412
986 3 0.0 1.141579 5.886651 34.152876
987 2 0.0 36.540924 34.571702 18.317607
988 3 0.0 36.034413 35.245915 17.858823
989 3 0.0 0.073931 35.053163 18.737956
990 2 0.0 35.024029 24.852481 10.092517
991 3 0.0 34.645380 25.610351 10.544022
992 3 0.0 34.589546 24.094030 10.489476
993 2 0.0 9.424473 25.097224 22.493270
994 3 0.0 9.263557 24.738238 23.390841
995 3 0.0 10.005037 25.883519 22.564584
996 3 0.0 8.568347 25.368528 22.101042
997 2 0.0 21.598923 12.521033 21.152491
998 3 0.0 21.638166 13.393436 21.551206
999 3 0.0 21.003272 12.623829 20.406680
1000 2 0.0 27.857930 15.618736 13.082976
1001 3 0.0 27.466392 14.786259 12.808605
1002 3 0.0 27.334892 15.892832 13.839880
1003 2 0.0 18.735329 25.198633 34.613764
1004 3 0.0 19.074709 24.783443 33.817499
1005 3 0.0 18.383693 26.040508 34.315102
1006 2 0.0 27.219575 25.084576 24.730368
1007 3 0.0 27.908136 24.449401 24.520518
1008 3 0.0 26.470573 24.547594 24.999155
1009 1 0.0 35.082662 2.869874 13.637929
1010 2 0.0 35.687501 1.356334 13.654329
1011 2 0.0 35.416238 3.603669 15.054676
1012 2 0.0 33.467785 2.807376 13.425408
1013 2 0.0 35.759125 3.712115 12.417303
1014 3 0.0 36.034081 1.924267 12.962278
1015 3 0.0 36.184529 3.317927 14.554995
1016 3 0.0 33.985636 2.419284 12.716313
1017 2 0.0 8.626260 8.348398 31.777558
1018 3 0.0 8.117251 8.141484 32.564766
1019 3 0.0 8.683135 7.516343 31.302112
1020 1 0.0 3.109900 17.769171 32.440386
1021 2 0.0 4.449130 16.866068 32.658943
1022 2 0.0 3.107684 18.380905 30.929533
1023 2 0.0 3.095299 18.989628 33.520744
1024 2 0.0 1.787486 16.840084 32.652325
1025 3 0.0 3.619836 16.394414 32.765779
1026 3 0.0 3.116920 17.422229 30.979067
1027 3 0.0 3.102943 18.109192 33.903332
1028 2 0.0 9.405470 16.655822 35.883157
1029 3 0.0 9.693200 15.917060 35.341823
1030 3 0.0 8.476624 16.765407 35.666741
1031 1 0.0 3.063684 29.137669 32.855724
1032 2 0.0 1.617657 28.620280 32.309635
1033 2 0.0 2.994749 29.335982 34.472146
1034 2 0.0 3.434365 30.559072 32.149248
1035 2 0.0 4.207967 28.035341 32.491867
1036 3 0.0 2.352529 28.027330 32.136502
1037 3 0.0 2.815054 28.444461 34.164738
1038 3 0.0 3.311175 29.824758 31.543272
1039 3 0.0 3.320421 27.808763 32.204595
1040 2 0.0 13.513126 31.516089 17.301661
1041 3 0.0 12.651845 31.906089 17.135240
1042 3 0.0 13.964404 31.559129 16.455437
1043 2 0.0 8.291299 7.487195 3.383380
1044 3 0.0 8.655562 8.265261 3.811780
1045 3 0.0 8.280169 6.817025 4.070656
1046 2 0.0 23.211751 14.109321 28.913298
1047 3 0.0 22.752199 13.816895 29.703803
1048 3 0.0 23.911520 14.680162 29.238972
1049 1 0.0 34.354272 9.332028 24.038954
1050 2 0.0 35.645837 9.468802 23.054041
1051 2 0.0 34.820375 8.681701 25.459067
1052 2 0.0 33.238327 8.370397 23.341219
1053 2 0.0 33.712549 10.807212 24.301488
1054 3 0.0 35.204788 10.295753 23.261954
1055 3 0.0 35.248196 9.510731 25.232620
1056 3 0.0 33.462803 9.159415 22.842559
1057 2 0.0 4.807624 34.043114 32.909313
1058 3 0.0 5.101839 33.658171 33.738081
1059 3 0.0 5.206230 34.916325 32.894591
1060 1 0.0 15.135359 14.468126 5.686536
1061 2 0.0 16.354938 14.832563 6.704726
1062 2 0.0 14.487842 15.844125 5.099809
1063 2 0.0 13.991349 13.627802 6.487783
1064 2 0.0 15.707305 13.568015 4.453825
1065 3 0.0 16.605348 14.301026 5.945539
1066 3 0.0 15.418897 15.717711 4.902943
1067 3 0.0 14.858588 13.216517 6.469318
1068 3 0.0 16.363354 13.828516 5.104470
1069 2 0.0 3.565343 1.806436 5.640569
1070 3 0.0 3.428683 2.759132 5.455921
1071 3 0.0 4.274787 1.467648 5.055495
1072 3 0.0 2.735338 1.322693 5.446963
1073 1 0.0 34.645563 17.865401 24.320873
1074 2 0.0 34.697397 16.376605 23.659283
1075 2 0.0 36.163041 18.431418 24.504683
1076 2 0.0 33.914471 17.788327 25.775680
1077 2 0.0 33.807344 18.865254 23.343845
1078 3 0.0 34.219715 17.032281 23.145952
1079 3 0.0 35.912870 18.227352 23.600596
1080 3 0.0 33.375285 17.501603 25.034958
1081 3 0.0 33.887138 17.962187 23.028086
1082 2 0.0 23.818337 34.080129 27.607186
1083 3 0.0 24.071213 33.741533 28.491384
1084 3 0.0 23.218644 34.846989 27.719855
1085 3 0.0 23.344023 33.374342 27.120060
1086 2 0.0 17.077164 1.298604 36.787562
1087 3 0.0 16.687213 2.096405 37.152322
1088 3 0.0 16.806565 0.601481 0.206251
1089 2 0.0 29.253314 17.827842 17.021494
1090 3 0.0 29.299502 16.950204 16.635208
1091 3 0.0 29.646344 18.402665 16.360657
1092 2 0.0 23.086903 2.561452 17.660527
1093 3 0.0 23.630993 2.035712 18.251428
1094 3 0.0 23.714898 3.082581 17.154911
1095 2 0.0 17.941934 13.897122 18.148051
1096 3 0.0 18.653058 14.475956 18.432398
1097 3 0.0 17.433318 14.426625 17.529556
1098 2 0.0 18.239957 36.362000 5.460146
1099 3 0.0 18.837248 36.488747 4.719350
1100 3 0.0 17.606131 35.711254 5.149672
1101 1 0.0 17.627996 10.243343 8.582082
1102 2 0.0 16.410221 10.724480 9.552870
1103 2 0.0 18.878149 9.729090 9.492886
1104 2 0.0 18.109880 11.494007 7.654435
1105 2 0.0 17.113736 9.025794 7.628136
1106 3 0.0 16.192362 10.006201 8.954361
1107 3 0.0 18.058233 9.246068 9.619489
1108 3 0.0 17.191217 11.237835 7.544738
1109 2 0.0 16.645401 32.586584 4.741809
1110 3 0.0 16.145540 31.788443 4.555503
1111 3 0.0 17.484801 32.270506 5.084009
1112 2 0.0 35.507779 5.078059 33.885793
1113 3 0.0 36.094101 5.672935 33.412559
1114 3 0.0 36.072762 4.645354 34.530121
1115 2 0.0 18.273530 13.830190 3.484356
1116 3 0.0 18.127483 14.702398 3.857886
1117 3 0.0 19.204241 13.821835 3.249178
1118 2 0.0 34.830993 0.698506 24.674988
1119 3 0.0 34.300358 0.950063 25.434425
1120 3 0.0 35.695134 1.078971 24.848502
1121 1 0.0 3.789007 26.635508 3.563152
1122 2 0.0 2.383041 25.824344 3.414248
1123 2 0.0 3.972523 27.642145 2.294332
1124 2 0.0 5.026699 25.575450 3.599150
1125 2 0.0 3.773766 27.500091 4.944876
1126 3 0.0 2.459031 26.362653 4.205481
1127 3 0.0 3.191486 27.801775 2.829216
1128 3 0.0 4.381159 25.469442 4.301745
1129 3 0.0 2.978688 26.988811 4.777414
1130 2 0.0 17.326577 23.406819 35.196046
1131 3 0.0 17.134802 22.981338 36.034967
1132 3 0.0 17.738697 22.720206 34.666595
1133 2 0.0 14.255625 0.581206 18.178595
1134 3 0.0 13.923229 36.888828 18.389058
1135 3 0.0 15.193650 0.536927 18.377963
1136 2 0.0 2.010091 25.606966 16.001961
1137 3 0.0 1.198144 25.433310 16.483818
1138 3 0.0 1.718008 25.893288 15.133452
1139 2 0.0 6.273355 18.723783 32.464688
1140 3 0.0 6.065165 18.727654 33.401833
1141 3 0.0 7.047210 19.286655 32.387718
1142 2 0.0 35.417190 29.817994 20.519509
1143 3 0.0 35.600891 30.544967 21.118979
1144 3 0.0 34.546378 30.012345 20.165229
1145 2 0.0 21.427110 18.864201 36.268793
1146 3 0.0 21.307074 18.614354 0.004601
1147 3 0.0 22.337106 18.629727 36.072503
1148 2 0.0 20.100366 7.409569 19.642581
1149 3 0.0 19.807724 7.868155 18.851595
1150 3 0.0 21.048235 7.559081 19.670698
1151 2 0.0 1.557627 37.036764 32.611142
1152 3 0.0 1.477938 0.769008 32.888668
1153 3 0.0 2.499505 36.906451 32.478913
1154 2 0.0 22.921115 20.071789 16.877210
1155 3 0.0 23.448737 19.858575 16.104064
1156 3 0.0 22.210170 20.621338 16.539343
1157 2 0.0 6.397017 29.462323 31.077233
1158 3 0.0 5.969993 30.294588 31.293067
1159 3 0.0 7.329311 29.680806 31.008728
1160 2 0.0 35.134105 11.626715 5.992049
1161 3 0.0 34.270645 11.952587 5.727769
1162 3 0.0 35.673328 12.416284 6.078182
1163 1 0.0 23.808889 4.507847 12.034228
1164 2 0.0 24.831381 3.255894 12.244045
1165 2 0.0 23.304514 5.046872 13.487485
1166 2 0.0 22.523082 4.018598 11.160023
1167 2 0.0 24.576581 5.710026 11.245357
1168 3 0.0 25.204474 4.011863 11.784794
1169 3 0.0 24.253207 5.087974 13.346443
1170 3 0.0 23.371335 3.927533 10.719825
1171 3 0.0 25.109266 4.928872 11.411625
1172 2 0.0 17.034650 28.841077 18.132249
1173 3 0.0 16.969417 28.053582 17.587092
1174 3 0.0 17.710406 29.373458 17.706192
1175 2 0.0 5.151363 6.346644 2.451850
1176 3 0.0 4.912667 7.265631 2.310123
1177 3 0.0 4.672402 5.866070 1.772699
1178 2 0.0 29.499830 30.410788 29.416162
1179 3 0.0 30.370391 30.448229 29.013272
1180 3 0.0 28.890700 30.539716 28.685452
1181 1 0.0 2.689975 22.141978 35.295903
1182 2 0.0 3.022831 20.600759 35.709125
1183 2 0.0 1.353322 22.178002 34.363722
1184 2 0.0 3.947285 22.765971 34.467228
1185 2 0.0 2.436460 23.023177 36.643537
1186 3 0.0 2.859270 21.192414 36.447225
1187 3 0.0 1.226438 21.808960 35.240824
1188 3 0.0 4.153811 22.472502 35.357634
1189 2 0.0 34.287388 26.480523 35.627930
1190 3 0.0 33.648373 25.862992 35.991131
1191 3 0.0 35.131133 26.189572 35.981542
1192 2 0.0 11.936466 22.844122 36.427989
1193 3 0.0 12.800576 22.854564 36.009891
1194 3 0.0 11.674054 23.766959 36.461342
1195 2 0.0 20.465710 31.775937 19.531044
1196 3 0.0 21.058166 32.391255 19.092888
1197 3 0.0 21.021706 31.027166 19.758662
1198 2 0.0 0.661559 4.733673 9.316290
1199 3 0.0 1.523319 4.375417 9.091297
1200 3 0.0 0.835648 5.346252 10.034648
1201 2 0.0 8.098059 18.787119 25.534692
1202 3 0.0 7.187420 18.608457 25.780488
1203 3 0.0 8.112056 19.724461 25.327822
1204 2 0.0 14.928730 25.893967 20.298860
1205 3 0.0 14.540590 26.589599 20.834625
1206 3 0.0 14.763020 26.166679 19.393449
1207 1 0.0 36.328912 3.612142 6.923161
1208 2 0.0 36.907696 4.866038 6.057337
1209 2 0.0 36.480624 3.934166 8.513816
1210 2 0.0 37.171494 2.265248 6.558701
1211 2 0.0 34.755832 3.383114 6.562791
1212 3 0.0 35.982254 4.660907 5.905421
1213 3 0.0 35.937199 4.555792 8.024051
1214 3 0.0 36.716868 2.672363 5.817639
1215 3 0.0 35.178191 4.106799 6.094289
1216 2 0.0 36.522896 8.639157 7.713255
1217 3 0.0 37.169473 8.272352 8.320702
1218 3 0.0 36.953678 9.412166 7.341121
1219 1 0.0 16.205299 26.980636 7.833505
1220 2 0.0 17.236294 27.534732 8.967933
1221 2 0.0 15.157097 25.935443 8.515958
1222 2 0.0 17.044779 26.220577 6.661121
1223 2 0.0 15.383028 28.231792 7.189006
1224 3 0.0 16.708709 28.209732 8.534771
1225 3 0.0 15.140538 26.823155 8.881053
1226 3 0.0 17.270849 27.144938 6.787808
1227 2 0.0 21.238223 8.275225 22.756620
1228 3 0.0 21.594823 8.034264 21.898498
1229 3 0.0 21.883205 7.945369 23.386536
1230 2 0.0 9.616437 21.098654 3.253584
1231 3 0.0 9.186289 21.791230 2.746720
1232 3 0.0 9.377501 20.285997 2.801811
1233 2 0.0 8.643271 30.518086 31.730893
1234 3 0.0 9.170399 31.318563 31.785410
1235 3 0.0 9.144465 29.938796 31.152249
1236 2 0.0 13.051622 34.307523 16.792801
1237 3 0.0 13.920900 34.103886 16.388713
1238 3 0.0 12.385516 34.407253 16.080932
1239 3 0.0 13.119800 35.152111 17.285165
1240 2 0.0 32.963220 5.717799 29.864039
1241 3 0.0 32.219811 5.533233 29.252746
1242 3 0.0 32.617291 6.183113 30.654112
1243 3 0.0 33.610655 6.297781 29.411437
1244 1 0.0 21.983182 19.920426 12.593551
1245 2 0.0 20.717935 19.374693 13.464313
1246 2 0.0 21.562494 20.009976 11.021322
1247 2 0.0 23.240588 18.896991 12.762107
1248 2 0.0 22.411711 21.400044 13.126461
1249 3 0.0 21.036699 20.245232 13.713615
1250 3 0.0 21.034709 20.550210 11.613936
1251 3 0.0 22.928494 19.294170 13.578468
1252 3 0.0 21.669593 21.002023 13.587374
1253 2 0.0 34.178247 22.910581 16.143576
1254 3 0.0 33.728971 22.183742 15.706019
1255 3 0.0 34.189069 22.663395 17.071144
1256 2 0.0 16.851315 13.738572 14.725945
1257 3 0.0 17.184528 14.186097 13.920283
1258 3 0.0 16.018510 13.270156 14.508177
1259 3 0.0 16.666404 14.414000 15.411515
1260 2 0.0 10.166039 31.032948 23.472368
1261 3 0.0 11.078606 30.768479 23.609765
1262 3 0.0 10.186945 31.992364 23.498545
1263 1 0.0 14.581470 24.981796 16.132317
1264 2 0.0 15.384859 26.261994 16.742693
1265 2 0.0 14.397788 23.851982 17.292784
1266 2 0.0 15.427329 24.351699 14.889578
1267 2 0.0 13.115904 25.461508 15.604215
1268 3 0.0 14.506768 26.456536 16.406969
1269 3 0.0 13.999284 24.703146 17.488521
1270 3 0.0 15.161154 25.267093 14.776425
1271 3 0.0 13.658953 26.157427 15.981566
1272 1 0.0 12.742084 13.151436 35.201558
1273 2 0.0 11.443541 12.701004 34.325317
1274 2 0.0 13.979587 12.133885 34.901434
1275 2 0.0 12.370707 13.102244 36.787925
1276 2 0.0 13.174500 14.668609 34.791557
1277 3 0.0 11.766509 13.587070 34.145930
1278 3 0.0 13.648285 12.607038 34.134645
1279 3 0.0 11.832610 13.699863 36.263612
1280 2 0.0 5.366410 16.683794 7.970052
1281 3 0.0 4.955364 17.030043 8.765510
1282 3 0.0 6.308577 16.791157 8.119700
1283 2 0.0 32.318647 24.762367 30.738489
1284 3 0.0 32.443975 23.993241 30.177830
1285 3 0.0 32.385987 25.509992 30.140056
1286 2 0.0 3.007406 6.921092 10.102705
1287 3 0.0 2.876048 7.783240 10.504011
1288 3 0.0 2.128121 6.537912 10.062324
1289 2 0.0 19.644159 12.907557 11.946366
1290 3 0.0 19.168710 13.007340 11.095254
1291 3 0.0 20.342818 13.592477 12.002585
1292 3 0.0 20.063622 12.022310 11.974466
1293 2 0.0 16.676372 8.006712 30.429995
1294 3 0.0 16.417504 7.314965 31.074101
1295 3 0.0 16.322623 7.768177 29.547746
1296 3 0.0 17.654367 8.045378 30.380681
1297 2 0.0 18.724383 29.937545 6.133032
1298 3 0.0 19.202245 29.380789 6.752120
1299 3 0.0 19.396446 30.252129 5.523961
1300 2 0.0 2.509667 32.233377 35.610128
1301 3 0.0 2.128238 33.113853 35.580566
1302 3 0.0 2.809378 32.131215 36.516405
1303 1 0.0 2.802890 25.873267 20.629213
1304 2 0.0 2.885328 27.259071 19.775017
1305 2 0.0 1.535075 25.939753 21.651525
1306 2 0.0 4.178465 25.677727 21.481538
1307 2 0.0 2.612694 24.616516 19.608771
1308 3 0.0 2.772686 26.464150 19.248699
1309 3 0.0 1.311110 26.021364 20.721590
1310 3 0.0 4.294263 25.725658 20.529753
1311 2 0.0 28.046843 18.519049 24.156920
1312 3 0.0 28.991644 18.499199 24.325907
1313 3 0.0 27.650361 18.192471 24.967937
1314 2 0.0 0.289187 32.710330 2.936077
1315 3 0.0 0.731802 33.081727 3.702730
1316 3 0.0 0.405780 31.761774 3.026891
1317 2 0.0 20.136453 3.233387 20.577064
1318 3 0.0 20.436380 3.861824 21.237905
1319 3 0.0 20.504387 2.392935 20.859668
1320 2 0.0 5.604536 15.338832 15.500304
1321 3 0.0 5.282470 14.918439 14.699589
1322 3 0.0 5.099282 16.152558 15.564874
1323 2 0.0 23.819019 7.130813 31.134138
1324 3 0.0 23.082179 7.084369 30.520535
1325 3 0.0 23.408183 7.177017 32.000555
1326 2 0.0 36.468013 22.165215 28.736993
1327 3 0.0 36.397123 23.142643 28.733896
1328 3 0.0 0.164554 21.911254 29.085958
1329 3 0.0 36.383885 21.837320 27.817315
1330 2 0.0 12.375301 29.825852 21.498578
1331 3 0.0 11.662849 30.468042 21.538635
1332 3 0.0 11.970901 29.000173 21.774827
1333 2 0.0 27.148617 35.860099 8.955045
1334 3 0.0 27.206563 35.485782 9.837160
1335 3 0.0 26.484851 36.549663 9.029318
1336 1 0.0 30.445561 7.168895 11.640317
1337 2 0.0 29.042734 7.742866 11.040704
1338 2 0.0 31.447171 8.413168 11.965068
1339 2 0.0 31.141599 6.182730 10.544913
1340 2 0.0 30.150740 6.336816 13.010581
1341 3 0.0 28.960249 7.237235 11.852575
1342 3 0.0 30.614778 8.426969 12.443118
1343 3 0.0 30.269930 5.909846 10.840426
1344 2 0.0 29.441586 3.573358 23.340111
1345 3 0.0 29.572355 2.792122 23.882485
1346 3 0.0 29.417552 4.300184 23.966807
1347 2 0.0 25.582435 19.894615 13.645310
1348 3 0.0 25.405980 19.945862 14.607930
1349 3 0.0 25.833519 18.975377 13.416488
1350 3 0.0 26.327975 20.491814 13.426395
1351 2 0.0 6.901630 28.016713 11.720453
1352 3 0.0 6.737516 27.494677 10.931691
1353 3 0.0 7.059699 28.905033 11.392579
1354 1 0.0 3.858911 31.894122 24.883927
1355 2 0.0 4.667081 32.385477 26.211455
1356 2 0.0 4.885269 31.128389 23.875392
1357 2 0.0 3.218448 33.188272 24.127696
1358 2 0.0 2.664846 30.874351 25.321163
1359 3 0.0 3.942414 31.778556 26.379101
1360 3 0.0 4.798713 30.730801 24.744893
1361 3 0.0 2.917651 33.055447 25.029627
1362 2 0.0 4.426479 12.366950 33.880124
1363 3 0.0 4.934374 12.850390 34.535813
1364 3 0.0 3.910533 11.738637 34.390635
1365 2 0.0 33.619614 35.338731 12.652324
1366 3 0.0 34.543308 35.593378 12.711867
1367 3 0.0 33.478663 34.765596 13.409457
1368 2 0.0 21.767157 1.409420 29.454845
1369 3 0.0 21.393877 0.801206 28.812711
1370 3 0.0 21.714666 0.939480 30.290309
1371 2 0.0 11.968426 27.907018 16.074489
1372 3 0.0 12.345002 28.195546 15.216968
1373 3 0.0 11.935497 26.927766 16.094011
1374 3 0.0 11.056871 28.257573 16.155603
1375 2 0.0 20.515944 23.333402 21.777695
1376 3 0.0 21.191193 22.652343 21.735298
1377 3 0.0 20.081431 23.295100 20.922516
1378 2 0.0 28.415867 28.853666 24.285272
1379 3 0.0 27.643324 29.304305 24.634131
1380 3 0.0 28.342541 27.956641 24.619292
1381 1 0.0 7.665755 24.714100 1.728426
1382 2 0.0 6.556481 23.648760 1.188555
1383 2 0.0 8.322847 25.502837 0.462320
1384 2 0.0 8.834725 23.917730 2.538491
1385 2 0.0 6.948968 25.787074 2.724340
1386 3 0.0 6.217430 24.320348 1.784889
1387 3 0.0 7.373471 25.608537 0.557774
1388 3 0.0 7.951141 23.819692 2.900801
1389 1 0.0 12.297631 12.577938 13.402996
1390 2 0.0 12.148851 14.183623 13.165210
1391 2 0.0 11.086036 12.055877 14.360277
1392 2 0.0 13.728526 12.264866 14.118135
1393 2 0.0 12.227111 11.807387 11.968360
1394 3 0.0 12.117880 13.650732 12.367295
1395 3 0.0 10.806148 12.461590 13.536469
1396 3 0.0 13.788286 12.697441 13.263204
1397 3 0.0 12.147123 12.762830 11.920081
1398 2 0.0 36.870351 17.659991 14.728426
1399 3 0.0 36.390915 16.865218 14.483323
1400 3 0.0 0.407590 17.711059 14.096120
1401 2 0.0 9.396450 9.338153 21.522027
1402 3 0.0 9.007191 9.616070 22.354397
1403 3 0.0 9.010846 8.475578 21.352106
1404 2 0.0 20.071487 10.177354 17.041702
1405 3 0.0 19.635467 9.468603 17.559350
1406 3 0.0 20.883699 10.460458 17.511345
1407 3 0.0 19.461713 10.941372 16.972047
1408 1 0.0 29.067139 31.262750 2.467528
1409 2 0.0 28.396484 32.708304 2.810301
1410 2 0.0 30.091206 31.423479 1.209612
1411 2 0.0 27.895047 30.197884 2.081317
1412 2 0.0 29.885821 30.721332 3.768884
1413 3 0.0 28.900349 32.314776 3.526440
1414 3 0.0 30.306638 31.956019 1.978760
1415 3 0.0 27.828200 30.572896 2.962508
1416 2 0.0 16.994850 7.171372 12.021814
1417 3 0.0 16.429357 7.941055 12.118800
1418 3 0.0 16.936881 6.945937 11.090461
1419 2 0.0 35.877401 27.501008 7.513722
1420 3 0.0 36.777801 27.573073 7.188627
1421 3 0.0 35.597228 26.620504 7.253307
1422 2 0.0 1.397812 32.239731 14.086392
1423 3 0.0 1.157684 31.826648 13.253745
1424 3 0.0 1.941945 31.585875 14.531355
1425 2 0.0 8.214128 1.777444 7.379965
1426 3 0.0 7.933609 2.518367 6.837801
1427 3 0.0 8.547390 1.132279 6.752033
1428 2 0.0 16.960661 7.264419 36.055578
1429 3 0.0 17.103277 7.455835 35.125728
1430 3 0.0 16.943535 6.305800 36.104107
1431 2 0.0 36.155505 31.018013 23.433996
1432 3 0.0 35.244903 31.320924 23.408526
1433 3 0.0 36.416808 30.963193 22.511870
1434 2 0.0 3.490443 8.872621 14.268294
1435 3 0.0 3.222951 8.751609 15.182299
1436 3 0.0 3.069030 8.150491 13.796554
1437 2 0.0 6.999415 30.294965 16.087232
1438 3 0.0 6.665985 30.962006 16.691782
1439 3 0.0 6.229118 30.018138 15.585625
1440 2 0.0 6.677693 10.870603 0.190175
1441 3 0.0 7.183406 11.520681 0.683382
1442 3 0.0 6.826737 11.097782 36.452732
1443 2 0.0 17.429796 6.492850 2.659153
1444 3 0.0 17.940418 7.112736 2.133219
1445 3 0.0 16.974304 5.947563 2.013562
1446 2 0.0 36.230042 10.883255 36.265443
1447 3 0.0 35.607534 11.264406 35.641897
1448 3 0.0 35.923778 11.182486 37.124666
1449 2 0.0 11.500936 34.340977 35.481127
1450 3 0.0 10.540342 34.521515 35.552299
1451 3 0.0 11.994831 35.079192 35.895261
1452 3 0.0 11.745056 34.287024 34.533554
1453 2 0.0 26.475595 2.306920 13.576735
1454 3 0.0 26.391462 2.947975 12.867108
1455 3 0.0 27.205623 2.631494 14.109003
1456 1 0.0 15.782512 19.049697 19.840469
1457 2 0.0 15.531020 19.538884 18.306081
1458 2 0.0 14.392476 19.168637 20.683412
1459 2 0.0 16.919326 19.991462 20.531580
1460 2 0.0 16.287228 17.499806 19.840805
1461 3 0.0 15.831903 18.631963 18.398619
1462 3 0.0 14.357174 18.583401 19.923246
1463 3 0.0 17.208808 19.511986 19.751898
1464 2 0.0 11.852031 8.114243 23.748422
1465 3 0.0 12.745201 8.490560 23.893450
1466 3 0.0 11.394345 8.638275 23.058266
1467 3 0.0 11.342361 8.173912 24.583333
1468 2 0.0 20.854015 15.408655 19.949410
1469 3 0.0 21.113435 15.745708 19.088772
1470 3 0.0 20.422427 14.572266 19.760239
1471 2 0.0 10.208162 32.328780 35.722785
1472 3 0.0 10.060804 31.402770 35.516893
1473 3 0.0 10.574290 32.322730 36.610204
1474 2 0.0 6.879623 32.058926 1.374272
1475 3 0.0 7.220486 32.869537 0.989147
1476 3 0.0 6.609654 32.308701 2.261024
1477 2 0.0 12.623726 10.212011 3.506631
1478 3 0.0 12.927207 10.415795 4.394308
1479 3 0.0 12.983685 10.915656 2.961733
1480 2 0.0 10.220834 25.579956 4.108046
1481 3 0.0 9.302526 25.640520 3.834840
1482 3 0.0 10.294870 24.712536 4.512646
1483 1 0.0 18.364690 32.337571 14.042511
1484 2 0.0 17.105274 32.979057 14.854464
1485 2 0.0 17.809555 31.343756 12.875868
1486 2 0.0 19.303070 31.493615 15.074054
1487 2 0.0 19.240859 33.533856 13.365660
1488 3 0.0 17.677120 33.617732 14.422393
1489 3 0.0 17.521225 32.256482 12.802404
1490 3 0.0 19.206706 32.425603 15.283129
1491 3 0.0 18.475101 33.825038 13.866088
1492 2 0.0 21.185330 20.768645 5.241696
1493 3 0.0 21.394355 21.359675 4.514653
1494 3 0.0 21.288532 21.308998 6.028441
1495 2 0.0 15.088957 25.824996 23.873219
1496 3 0.0 14.715501 25.865264 22.989755
1497 3 0.0 14.499893 25.241567 24.357176
1498 2 0.0 27.928695 9.964946 29.036706
1499 3 0.0 27.567436 9.076489 28.995042
1500 3 0.0 27.523515 10.424430 28.297583
1501 2 0.0 4.627697 27.036566 28.846525
1502 3 0.0 4.248625 27.247661 27.990171
1503 3 0.0 4.460166 26.098030 28.959152
1504 2 0.0 25.470636 15.189793 23.058760
1505 3 0.0 26.393370 15.255649 23.315325
1506 3 0.0 25.249515 16.063867 22.729062
1507 2 0.0 21.196961 28.279622 21.150594
1508 3 0.0 20.750282 27.709057 21.780302
1509 3 0.0 20.528530 28.480406 20.491438
1510 2 0.0 7.225819 30.912608 20.775463
1511 3 0.0 6.575463 30.382032 20.309496
1512 3 0.0 7.283106 31.724691 20.266701
1513 2 0.0 31.195751 24.153125 23.548483
1514 3 0.0 31.016625 23.482873 22.884950
1515 3 0.0 31.951820 23.815149 24.034005
1516 2 0.0 32.720516 30.578304 35.792540
1517 3 0.0 32.035652 30.949796 36.353393
1518 3 0.0 32.564541 30.970513 34.930308
1519 2 0.0 33.369808 14.517884 22.373274
1520 3 0.0 34.172852 13.993611 22.416376
1521 3 0.0 32.934077 14.225111 21.569518
1522 1 0.0 24.353023 24.783442 12.519935
1523 2 0.0 23.541246 24.739812 13.932738
1524 2 0.0 25.765328 25.569983 12.728853
1525 2 0.0 23.457516 25.562209 11.402576
1526 2 0.0 24.648002 23.261764 12.015571
1527 3 0.0 23.757107 23.880932 13.562160
1528 3 0.0 25.654268 24.784872 13.270024
1529 3 0.0 23.049826 24.776099 11.773277
1530 3 0.0 24.170656 23.328646 12.845793
1531 2 0.0 11.665318 22.363933 26.179426
1532 3 0.0 12.011072 21.640299 25.651782
1533 3 0.0 12.277654 22.439537 26.914904
1534 1 0.0 30.069116 16.014817 30.876894
1535 2 0.0 30.361170 14.940782 32.067714
1536 2 0.0 28.508004 16.479987 30.935598
1537 2 0.0 30.375839 15.322445 29.433481
1538 2 0.0 31.031450 17.316055 31.070785
1539 3 0.0 30.888423 15.742126 32.105816
1540 3 0.0 29.017528 16.668408 31.727104
1541 3 0.0 31.125442 15.362084 30.031916
1542 3 0.0 31.138880 16.629668 31.733304
1543 2 0.0 16.236365 0.351329 24.787890
1544 3 0.0 16.343874 0.847717 23.973248
1545 3 0.0 17.101388 37.152320 24.952727
1546 2 0.0 14.021126 33.434434 28.835039
1547 3 0.0 14.143993 33.482013 29.785955
1548 3 0.0 14.911986 33.409129 28.478210
1549 2 0.0 2.828542 6.065080 28.685383
1550 3 0.0 3.151619 6.430177 29.512380
1551 3 0.0 3.596470 6.057482 28.109337
1552 2 0.0 7.187921 28.065893 6.895289
1553 3 0.0 7.096258 28.500953 7.746124
1554 3 0.0 7.484127 27.178219 7.109527
1555 2 0.0 17.258083 27.330870 3.028906
1556 3 0.0 17.522743 27.351887 2.106348
1557 3 0.0 16.933888 26.437729 3.166012
1558 2 0.0 7.007891 16.719695 2.059921
1559 3 0.0 7.325795 16.346861 2.908645
1560 3 0.0 6.433826 16.059836 1.617842
1561 3 0.0 7.779656 16.905608 1.485277
1562 1 0.0 28.743712 18.339840 35.736590
1563 2 0.0 29.872829 19.514079 35.792786
1564 2 0.0 28.285831 18.099888 34.190735
1565 2 0.0 27.450834 18.786391 36.623134
1566 2 0.0 29.365354 16.959002 36.339706
1567 3 0.0 30.156819 18.661638 36.130861
1568 3 0.0 29.218180 17.952079 34.365315
1569 3 0.0 28.275858 18.726820 37.110356
1570 1 0.0 33.990220 26.044976 26.178573
1571 2 0.0 32.666776 26.161248 27.122965
1572 2 0.0 33.874266 24.716018 25.241916
1573 2 0.0 35.318873 25.934526 27.116327
1574 2 0.0 34.100966 27.368111 25.233084
1575 3 0.0 32.809128 26.903350 26.530833
1576 3 0.0 33.172787 25.360131 25.120904
1577 3 0.0 34.803073 26.735258 27.236238
1578 3 0.0 33.345026 27.354305 25.824662
1579 2 0.0 30.877770 13.429207 11.441798
1580 3 0.0 30.586608 12.745549 10.833985
1581 3 0.0 30.127292 13.569361 12.023812
1582 2 0.0 34.569675 6.514173 27.746397
1583 3 0.0 35.429873 6.642082 28.152968
1584 3 0.0 34.599404 7.046143 26.947820
1585 1 0.0 3.668272 2.387902 34.262566
1586 2 0.0 3.663716 0.773906 34.034760
1587 2 0.0 2.673943 3.092238 33.179921
1588 2 0.0 5.181356 2.960459 34.063427
1589 2 0.0 3.154073 2.725004 35.772156
1590 3 0.0 3.372874 1.061897 34.903133
1591 3 0.0 2.252443 2.459849 33.766455
1592 3 0.0 5.082141 2.311131 34.763520
1593 2 0.0 14.091921 2.158035 10.686876
1594 3 0.0 14.637527 2.277794 9.906125
1595 3 0.0 13.334167 1.657001 10.376435
1596 2 0.0 9.679515 30.144443 8.084673
1597 3 0.0 8.733202 30.247394 8.209149
1598 3 0.0 10.073138 30.709773 8.753301
1599 2 0.0 2.383508 25.348915 13.363537
1600 3 0.0 1.888829 25.429337 12.544742
1601 3 0.0 2.025496 24.564162 13.784951
1602 1 0.0 24.593383 5.909445 34.832481
1603 2 0.0 24.592097 4.435555 35.528575
1604 2 0.0 24.899547 5.757358 33.238733
1605 2 0.0 25.745229 6.834576 35.521164
1606 2 0.0 23.136658 6.610291 35.041452
1607 3 0.0 23.767442 4.921050 35.604990
1608 3 0.0 24.113439 5.300147 33.546291
1609 3 0.0 25.067819 6.515823 36.122089
1610 3 0.0 23.223604 5.733659 35.422972
1611 1 0.0 16.827315 32.248100 19.390685
1612 2 0.0 16.889264 30.633936 19.608712
1613 2 0.0 17.551128 32.994133 20.646245
1614 2 0.0 15.271232 32.724686 19.299196
1615 2 0.0 17.597637 32.639646 18.008586
1616 3 0.0 17.321658 30.952761 18.813107
1617 3 0.0 18.115356 32.397830 20.148581
1618 3 0.0 15.542419 32.093751 18.628392
1619 1 0.0 7.328248 16.698705 10.955669
1620 2 0.0 7.124429 16.032474 12.429268
1621 2 0.0 5.920271 16.645967 10.136083
1622 2 0.0 8.465545 15.867091 10.135991
1623 2 0.0 7.802746 18.249288 11.121334
1624 3 0.0 7.405335 16.950442 12.434371
1625 3 0.0 5.892547 17.139869 10.958817
1626 3 0.0 8.764972 16.260882 10.958713
1627 2 0.0 8.870878 0.118542 16.435471
1628 3 0.0 8.557237 0.998999 16.654616
1629 3 0.0 8.916983 36.845879 17.279016
1630 1 0.0 4.881711 33.617028 0.131471
1631 2 0.0 3.316094 33.630703 36.861393
1632 2 0.0 5.820286 34.001132 36.038672
1633 2 0.0 5.278485 32.130564 0.669890
1634 2 0.0 5.111980 34.705713 1.322538
1635 3 0.0 3.540690 34.246245 0.379705
1636 3 0.0 5.184909 34.674609 36.292295
1637 3 0.0 4.573469 32.563612 1.156739
1638 2 0.0 25.724518 8.779827 6.444652
1639 3 0.0 25.588239 8.192438 7.191648
1640 3 0.0 25.930636 9.629513 6.841073
1641 2 0.0 32.872230 24.242955 11.827595
1642 3 0.0 32.155184 24.881252 11.822867
1643 3 0.0 33.332411 24.404039 12.654569
1644 2 0.0 9.106683 25.627475 13.070182
1645 3 0.0 9.076807 26.149158 13.875510
1646 3 0.0 9.806135 26.028748 12.549273
1647 2 0.0 36.974763 13.836818 3.399359
1648 3 0.0 0.476516 13.203215 3.624842
1649 3 0.0 36.482803 13.959679 4.214515
1650 2 0.0 11.807279 32.031735 13.962925
1651 3 0.0 12.114939 32.939226 14.021291
1652 3 0.0 12.042473 31.642993 14.808599
1653 2 0.0 34.938825 4.663222 23.722537
1654 3 0.0 35.631166 5.322400 23.810562
1655 3 0.0 35.037833 4.105227 24.497417
1656 2 0.0 0.391838 20.359350 23.448850
1657 3 0.0 0.367528 21.152587 23.989021
1658 3 0.0 1.322114 20.233249 23.248138
1659 2 0.0 14.001801 9.632910 11.613079
1660 3 0.0 13.671764 10.280655 10.986100
1661 3 0.0 13.393220 9.683111 12.353828
1662 2 0.0 10.073917 28.777981 13.388423
1663 3 0.0 10.593879 28.400879 12.674957
1664 3 0.0 10.005737 28.072227 14.035619
1665 1 0.0 5.350006 33.092263 8.397501
1666 2 0.0 5.994176 32.102015 9.520600
1667 2 0.0 5.431179 34.633632 8.921422
1668 2 0.0 3.791942 32.685827 8.144230
1669 2 0.0 6.182728 32.947580 7.003750
1670 3 0.0 6.426857 32.079700 8.663926
1671 3 0.0 6.277762 34.189200 8.835533
1672 3 0.0 4.427830 31.991039 7.958446
1673 3 0.0 6.497311 32.395653 7.723482
1674 2 0.0 23.428372 10.109925 35.737880
1675 3 0.0 22.675239 9.577167 36.003507
1676 3 0.0 23.273269 10.300159 34.809788
1677 2 0.0 32.412067 11.384276 34.995857
1678 3 0.0 31.466634 11.398002 35.161889
1679 3 0.0 32.527033 11.929042 34.213800
1680 2 0.0 27.597401 11.762567 24.998691
1681 3 0.0 28.499230 11.869710 25.309857
1682 3 0.0 27.374234 10.854414 25.215614
1683 2 0.0 14.780536 19.701402 6.164033
1684 3 0.0 14.192184 20.201734 6.734217
1685 3 0.0 14.223876 19.017539 5.784480
1686 2 0.0 25.229144 28.943509 34.576164
1687 3 0.0 25.200163 28.237907 33.925867
1688 3 0.0 25.289730 29.748007 34.055864
1689 2 0.0 25.454706 22.803423 2.426659
1690 3 0.0 25.607264 23.292310 1.614676
1691 3 0.0 24.967395 23.412425 2.986341
1692 2 0.0 3.347244 22.843901 2.385219
1693 3 0.0 2.889913 22.977960 1.551866
1694 3 0.0 3.299893 21.897024 2.536151
1695 2 0.0 16.971816 17.638853 32.710753
1696 3 0.0 17.549843 16.920140 32.444411
1697 3 0.0 16.892625 17.543863 33.662754
1698 2 0.0 34.083517 12.245359 16.916956
1699 3 0.0 34.643263 12.067683 17.676373
1700 3 0.0 33.206169 12.365849 17.287554
1701 2 0.0 33.958268 9.926638 28.977343
1702 3 0.0 33.746528 9.835258 28.045454
1703 3 0.0 33.110664 9.865327 29.423894
1704 2 0.0 10.968993 11.434006 36.431678
1705 3 0.0 10.919296 11.287198 0.195779
1706 3 0.0 10.094292 11.747584 36.190498
1707 1 0.0 24.544138 3.940154 2.650891
1708 2 0.0 25.438325 3.361041 1.417215
1709 2 0.0 25.530822 4.470100 3.835169
1710 2 0.0 23.586675 2.755376 3.230948
1711 2 0.0 23.620730 5.174099 2.120234
1712 3 0.0 24.861716 4.094500 1.191030
1713 3 0.0 25.641100 4.908952 2.988500
1714 3 0.0 23.447066 2.973830 2.306617
1715 2 0.0 5.963416 19.034682 15.868014
1716 3 0.0 6.711062 18.445937 15.741504
1717 3 0.0 6.068857 19.369006 16.761720
1718 2 0.0 32.200989 22.664942 26.381246
1719 3 0.0 32.761382 22.107344 26.925897
1720 3 0.0 32.790590 23.344255 26.045828
1721 2 0.0 22.714740 35.736087 20.330808
1722 3 0.0 21.803861 35.483245 20.163563
1723 3 0.0 22.732943 36.684018 20.180156
1724 2 0.0 27.647889 18.323336 3.381662
1725 3 0.0 26.959983 17.723539 3.679367
1726 3 0.0 27.418157 18.519798 2.470495
1727 1 0.0 15.448402 32.141615 10.448359
1728 2 0.0 16.897673 32.877343 10.571725
1729 2 0.0 14.309630 33.060692 11.166270
1730 2 0.0 15.513540 30.686779 11.180552
1731 2 0.0 15.072766 31.941649 8.874888
1732 3 0.0 16.597780 32.719850 9.673472
1733 3 0.0 14.771105 33.482147 10.437561
1734 3 0.0 16.129756 30.803108 10.453679
1735 1 0.0 27.222738 31.920156 13.725351
1736 2 0.0 27.054370 33.316308 12.901147
1737 2 0.0 26.973590 30.661965 12.719478
1738 2 0.0 26.134393 31.870298 14.937754
1739 2 0.0 28.728598 31.832052 14.343026
1740 3 0.0 27.917055 33.182399 13.300452
1741 3 0.0 27.698795 31.240804 12.473263
1742 3 0.0 26.751734 32.604449 14.976659
1743 2 0.0 23.228419 0.791172 24.233753
1744 3 0.0 23.712031 0.580436 25.035819
1745 3 0.0 22.552909 0.111637 24.174433
1746 1 0.0 5.588680 1.391254 18.402938
1747 2 0.0 4.985019 2.898740 18.261584
1748 2 0.0 4.395400 0.304536 18.174842
1749 2 0.0 6.222846 1.197331 19.891940
1750 2 0.0 6.751454 1.164409 17.283386
1751 3 0.0 5.679662 2.679581 17.636251
1752 3 0.0 4.558570 0.889899 17.431656
1753 3 0.0 6.620902 1.897448 19.369457
1754 3 0.0 6.339706 2.031533 17.270739
1755 2 0.0 16.191857 2.119241 11.576352
1756 3 0.0 16.999386 2.404867 11.142862
1757 3 0.0 15.600843 2.872340 11.504622
1758 2 0.0 30.451239 19.797960 12.136634
1759 3 0.0 30.702438 19.952551 11.223070
1760 3 0.0 29.887972 20.542372 12.360646
1761 2 0.0 33.023310 36.710803 1.189022
1762 3 0.0 33.933346 37.007299 1.114695
1763 3 0.0 32.695431 36.711669 0.286750
1764 2 0.0 24.829167 2.032662 5.509625
1765 3 0.0 24.465354 2.547270 6.233793
1766 3 0.0 24.789060 1.123828 5.816240
1767 2 0.0 26.988243 26.995358 33.818025
1768 3 0.0 27.655813 26.974732 33.128442
1769 3 0.0 27.479644 27.172273 34.623523
1770 2 0.0 19.578732 20.892684 36.403478
1771 3 0.0 19.043818 21.491679 35.877482
1772 3 0.0 20.363680 21.400156 36.622406
1773 1 0.0 6.251369 21.960583 9.063028
1774 2 0.0 6.606954 21.934419 7.472501
1775 2 0.0 7.578928 21.567209 9.923111
1776 2 0.0 5.065420 20.886003 9.372385
1777 2 0.0 5.754174 23.454699 9.484113
1778 3 0.0 6.304064 22.781896 7.806627
1779 3 0.0 7.669390 22.347737 9.371575
1780 3 0.0 4.832813 21.578974 8.750063
1781 3 0.0 5.985415 23.349963 8.558284
1782 1 0.0 31.008063 13.575164 6.729902
1783 2 0.0 30.463154 12.771172 5.420867
1784 2 0.0 32.250929 14.537332 6.298141
1785 2 0.0 31.512701 12.506668 7.852648
1786 2 0.0 29.805469 14.485483 7.347952
1787 3 0.0 29.815095 13.334943 5.849565
1788 3 0.0 31.421320 14.721200 5.851441
1789 3 0.0 30.588205 12.429529 7.605753
1790 3 0.0 29.569344 13.975511 6.569637
1791 2 0.0 26.742980 17.674748 6.080087
1792 3 0.0 27.100442 17.976770 6.918301
1793 3 0.0 25.791036 17.698103 6.201975
1794 2 0.0 17.335845 24.179874 15.078472
1795 3 0.0 17.927054 24.737852 14.567853
1796 3 0.0 17.447731 23.303510 14.702883
1797 2 0.0 27.478579 13.849027 28.674631
1798 3 0.0 28.107571 13.409832 28.097503
1799 3 0.0 26.623687 13.505915 28.404386
1800 2 0.0 14.100366 30.138213 28.923847
1801 3 0.0 14.265723 30.097311 27.979081
1802 3 0.0 14.701509 29.492050 29.301606
1803 2 0.0 29.309324 15.352117 3.156824
1804 3 0.0 30.083960 15.919160 3.157713
1805 3 0.0 28.570790 15.953728 3.037521
1806 2 0.0 16.155244 10.376571 34.306505
1807 3 0.0 16.552234 10.308730 33.435071
1808 3 0.0 16.138428 11.318593 34.490659
1809 2 0.0 37.170089 17.841383 35.423598
1810 3 0.0 36.931688 17.210156 36.106472
1811 3 0.0 36.506816 17.718911 34.740465
1812 2 0.0 31.209834 26.554361 14.927449
1813 3 0.0 31.634638 27.282534 14.468205
1814 3 0.0 30.854897 26.002267 14.226870
1815 2 0.0 23.038271 24.893476 18.301665
1816 3 0.0 22.374684 24.212287 18.538382
1817 3 0.0 23.172427 25.487233 19.069685
1818 3 0.0 22.698667 25.419995 17.548109
1819 1 0.0 28.339401 30.089588 32.123968
1820 2 0.0 27.948802 29.452199 33.572439
1821 2 0.0 27.378353 29.451295 30.972505
1822 2 0.0 29.896382 29.748868 31.782471
1823 2 0.0 28.134069 31.705992 32.168458
1824 3 0.0 27.856060 30.405696 33.510449
1825 3 0.0 26.917436 29.923527 31.669752
1826 3 0.0 29.759115 30.259348 32.583825
1827 2 0.0 25.135992 16.667331 17.389345
1828 3 0.0 25.467496 17.293012 18.037595
1829 3 0.0 25.892570 16.476673 16.830025
1830 2 0.0 16.397691 15.813672 18.185518
1831 3 0.0 15.725464 15.247633 18.571925
1832 3 0.0 15.921128 16.600593 17.911213
1833 2 0.0 28.621275 12.519844 32.018406
1834 3 0.0 28.927511 11.767321 31.507007
1835 3 0.0 29.038650 12.413677 32.876385
1836 2 0.0 20.394582 33.390093 36.680805
1837 3 0.0 20.874282 34.209351 36.823296
1838 3 0.0 20.226186 33.371003 35.735883
1839 1 0.0 29.360285 23.873437 34.882535
1840 2 0.0 30.086515 22.606141 34.159036
1841 2 0.0 28.748306 23.402130 36.317893
1842 2 0.0 28.155536 24.424150 33.932696
1843 2 0.0 30.450783 25.061326 35.120517
1844 3 0.0 30.660198 23.354944 34.337314
1845 3 0.0 29.698197 23.296595 36.227505
1846 3 0.0 29.029237 24.449978 33.535731
1847 3 0.0 30.796310 24.272346 34.696580
1848 2 0.0 15.448539 28.108806 11.395860
1849 3 0.0 15.180608 27.252421 11.054660
1850 3 0.0 16.398834 28.134573 11.262161
1851 2 0.0 26.202611 34.388591 30.255925
1852 3 0.0 25.999894 33.451567 30.305856
1853 3 0.0 26.023674 34.720928 31.138611
1854 2 0.0 4.479529 9.386844 19.932301
1855 3 0.0 4.266988 8.922929 19.119153
1856 3 0.0 4.753110 8.695374 20.539445
1857 2 0.0 30.163752 35.687242 4.079289
1858 3 0.0 29.577252 35.486479 4.812305
1859 3 0.0 31.037704 35.450932 4.398611
1860 1 0.0 9.432597 3.816279 2.885736
1861 2 0.0 8.706123 2.457682 2.353427
1862 2 0.0 11.007730 3.512587 3.174920
1863 2 0.0 8.713637 4.313566 4.261491
1864 2 0.0 9.302898 4.981279 1.753105
1865 3 0.0 8.676417 3.199022 1.744220
1866 3 0.0 10.725459 3.363947 2.269475
1867 3 0.0 8.136500 4.267879 3.495707
1868 3 0.0 8.899407 4.141987 1.519904
1869 1 0.0 13.775899 22.580924 29.877452
1870 2 0.0 13.695078 23.599497 31.147443
1871 2 0.0 13.944365 21.052069 30.417009
1872 2 0.0 15.055667 22.972907 28.947160
1873 2 0.0 12.408487 22.699224 28.998197
1874 3 0.0 12.925775 23.605169 30.573213
1875 3 0.0 13.146093 21.499207 30.707577
1876 3 0.0 14.400234 23.666936 29.048804
1877 2 0.0 19.661320 32.840969 30.716668
1878 3 0.0 18.816706 32.776570 31.209497
1879 3 0.0 19.873173 33.786624 30.570879
1880 3 0.0 19.556666 32.400802 29.847358
1881 2 0.0 1.348096 1.896095 20.479719
1882 3 0.0 0.947562 1.395065 19.738813
1883 3 0.0 2.323942 1.832437 20.415902
1884 3 0.0 1.058089 1.497495 21.326723
1885 2 0.0 21.160049 17.724106 6.309117
1886 3 0.0 20.295814 17.317459 6.405742
1887 3 0.0 21.588592 17.582892 7.156472
1888 2 0.0 11.897454 8.478225 1.894893
1889 3 0.0 12.355570 9.104062 2.460630
1890 3 0.0 11.308703 8.004656 2.487096
1891 2 0.0 3.105022 6.840810 18.682862
1892 3 0.0 2.467158 6.463766 19.293244
1893 3 0.0 3.955753 6.530794 19.001841
1894 2 0.0 27.766505 4.229673 34.114006
1895 3 0.0 28.230894 3.424609 33.873560
1896 3 0.0 28.079645 4.433179 34.998386
1897 2 0.0 27.160602 25.443936 8.470557
1898 3 0.0 26.952720 25.174276 9.368148
1899 3 0.0 27.064778 24.642859 7.950276
1900 2 0.0 21.219189 21.753858 1.601038
1901 3 0.0 21.951013 21.869293 2.211537
1902 3 0.0 21.519987 21.077383 0.989891
1903 2 0.0 8.234468 36.673207 8.823565
1904 3 0.0 8.974615 36.410206 9.375483
1905 3 0.0 7.630407 35.927961 8.859859
1906 2 0.0 19.230147 20.672607 28.549746
1907 3 0.0 20.000184 20.984021 29.031060
1908 3 0.0 18.543919 21.312203 28.753730
1909 1 0.0 26.640912 31.271583 7.141977
1910 2 0.0 25.206941 31.416986 7.903216
1911 2 0.0 27.758454 32.175131 7.911133
1912 2 0.0 26.493108 31.785096 5.602056
1913 2 0.0 27.105147 29.709118 7.151504
1914 3 0.0 25.556074 30.523637 7.862794
1915 3 0.0 27.353073 31.488990 8.446368
1916 3 0.0 25.925088 31.048823 5.840498
1917 2 0.0 3.001507 30.086470 17.402388
1918 3 0.0 3.547726 29.346808 17.063353
1919 3 0.0 3.326086 30.339936 18.291659
1920 3 0.0 2.071388 29.786894 17.476772
1921 2 0.0 31.377036 19.522808 29.309962
1922 3 0.0 30.557937 19.446402 28.815149
1923 3 0.0 31.933116 20.088341 28.769085
1924 2 0.0 28.568578 4.062044 14.199327
1925 3 0.0 28.531176 4.861174 14.765360
1926 3 0.0 29.497120 3.909300 13.925686
1927 3 0.0 28.022101 4.212679 13.399908
1928 2 0.0 17.550118 2.435708 29.870858
1929 3 0.0 16.779076 2.723946 29.376882
1930 3 0.0 17.802359 1.605356 29.460382
1931 2 0.0 9.218882 7.293013 26.131784
1932 3 0.0 9.880945 7.073442 25.472192
1933 3 0.0 8.528596 6.637545 26.007419
1934 2 0.0 6.180421 10.769262 9.011760
1935 3 0.0 6.600035 10.250193 8.321767
1936 3 0.0 6.876982 11.343581 9.338195
1937 2 0.0 13.415627 5.550482 2.218130
1938 3 0.0 13.105707 5.560294 1.309586
1939 3 0.0 13.371125 4.627301 2.477661
1940 2 0.0 15.801185 13.309457 20.589273
1941 3 0.0 15.218493 12.919752 21.245170
1942 3 0.0 16.203681 14.056396 21.038360
1943 2 0.0 8.865490 34.625877 10.989178
1944 3 0.0 8.474129 35.451647 11.283355
1945 3 0.0 9.551060 34.440834 11.635206
1946 1 0.0 12.907862 2.530149 26.622275
1947 2 0.0 14.475361 2.503394 27.068515
1948 2 0.0 11.964575 2.363177 27.941073
1949 2 0.0 12.616597 1.305050 25.587289
1950 2 0.0 12.574916 3.948976 25.892222
1951 3 0.0 14.192521 3.308281 26.628335
1952 3 0.0 12.542280 3.129844 27.949900
1953 3 0.0 13.278108 1.935714 25.293577
1954 2 0.0 17.069961 17.673033 37.124293
1955 3 0.0 16.630887 17.838686 36.286813
1956 3 0.0 16.402617 17.863206 0.604379
1957 2 0.0 35.182507 7.071174 21.014605
1958 3 0.0 35.829459 7.745767 20.795568
1959 3 0.0 34.825065 7.346577 21.861947
1960 2 0.0 34.109933 9.753525 1.544747
1961 3 0.0 33.720847 10.119586 2.366338
1962 3 0.0 34.335971 10.493164 0.942883
1963 3 0.0 33.447280 9.178910 1.107587
1964 2 0.0 7.061478 13.561186 4.711254
1965 3 0.0 7.462959 12.865739 5.237339
1966 3 0.0 6.816203 14.234826 5.349730
1967 1 0.0 11.720368 16.165508 15.634672
1968 2 0.0 11.325467 17.009621 16.971993
1969 2 0.0 13.070038 16.795988 14.973018
1970 2 0.0 10.498273 16.248361 14.559255
1971 2 0.0 11.987692 14.608062 16.034422
1972 3 0.0 11.500581 16.077061 17.117826
1973 3 0.0 13.171287 16.473168 15.871426
1974 3 0.0 10.268966 15.855154 15.404481
1975 2 0.0 8.906229 0.996257 0.115590
1976 3 0.0 8.618639 1.912158 0.119803
1977 3 0.0 8.173916 0.512247 0.504245
1978 2 0.0 10.104848 25.374152 18.535062
1979 3 0.0 10.709330 25.323499 19.279129
1980 3 0.0 9.608339 24.553351 18.572011
1981 2 0.0 28.026729 16.447840 27.478952
1982 3 0.0 27.169673 16.242772 27.859742
1983 3 0.0 27.832544 17.057983 26.763678
1984 2 0.0 23.070269 26.116450 9.054782
1985 3 0.0 22.955005 25.243544 8.672225
1986 3 0.0 22.237535 26.297376 9.496845
1987 2 0.0 27.213137 18.409884 12.531452
1988 3 0.0 27.842455 18.024122 11.917656
1989 3 0.0 26.420257 18.548039 12.008141
1990 2 0.0 14.343432 16.989867 10.147209
1991 3 0.0 13.707789 16.667769 10.790491
1992 3 0.0 13.982187 16.724608 9.298245
1993 2 0.0 10.482011 18.632747 23.683040
1994 3 0.0 10.537022 18.635609 24.641458
1995 3 0.0 10.823959 19.490277 23.419766
1996 2 0.0 36.852655 30.420968 31.756986
1997 3 0.0 0.363660 30.747794 31.180169
1998 3 0.0 0.136865 30.028297 32.497822
1999 2 0.0 32.807168 20.567905 5.266645
2000 3 0.0 32.129064 19.946818 4.927787
2001 3 0.0 32.747619 20.601377 6.244262
2002 3 0.0 32.628349 21.461551 4.906338
2003 2 0.0 12.163451 28.442378 9.164032
2004 3 0.0 12.203646 28.821971 10.044880
2005 3 0.0 11.631467 27.649980 9.267466
2006 2 0.0 30.776331 20.591824 15.233863
2007 3 0.0 30.168534 20.671275 14.495033
2008 3 0.0 30.242317 20.788356 16.007042
2009 2 0.0 21.173384 28.889855 31.775563
2010 3 0.0 22.041918 28.539675 31.986805
2011 3 0.0 21.276990 29.281696 30.905319
2012 2 0.0 12.889932 34.797586 30.676975
2013 3 0.0 13.498459 35.111503 31.349843
2014 3 0.0 12.630844 35.588684 30.198815
2015 2 0.0 14.941681 27.067797 3.387581
2016 3 0.0 14.697414 27.054564 2.459271
2017 3 0.0 14.110005 27.180153 3.853725
2018 2 0.0 20.198267 1.604113 1.728542
2019 3 0.0 19.604072 1.517301 2.477539
2020 3 0.0 21.060908 1.754904 2.121875
2021 2 0.0 27.620215 28.160144 7.307290
2022 3 0.0 28.195877 27.970125 8.051673
2023 3 0.0 27.770307 27.435454 6.695819
2024 1 0.0 22.654433 32.313566 2.541302
2025 2 0.0 21.126278 31.916262 2.136591
2026 2 0.0 22.847962 33.927091 2.414870
2027 2 0.0 23.695383 31.561190 1.537681
2028 2 0.0 22.948111 31.849722 4.076067
2029 3 0.0 21.384518 31.677566 3.029864
2030 3 0.0 22.173930 33.646938 3.038405
2031 3 0.0 23.130273 30.976941 2.048469
2032 2 0.0 15.065027 21.993258 13.918320
2033 3 0.0 14.870450 21.216548 14.483353
2034 3 0.0 15.571749 21.696768 13.133638
2035 3 0.0 15.610401 22.628475 14.427698
2036 1 0.0 3.528803 8.007371 5.610680
2037 2 0.0 3.384590 8.826077 4.208602
2038 2 0.0 2.318679 6.922247 5.733177
2039 2 0.0 3.450913 9.051423 6.859996
2040 2 0.0 4.961028 7.229738 5.640946
2041 3 0.0 4.204132 8.336542 4.310122
2042 3 0.0 2.892354 6.806026 4.972263
2043 3 0.0 4.170117 9.208872 6.243915
2044 1 0.0 7.510105 14.407701 22.079079
2045 2 0.0 7.109820 15.971723 21.854349
2046 2 0.0 6.793694 13.852773 23.433964
2047 2 0.0 9.128066 14.276840 22.227338
2048 2 0.0 7.008842 13.529465 20.800667
2049 3 0.0 6.850118 15.380374 21.144095
2050 3 0.0 6.191195 14.169709 22.757099
2051 3 0.0 8.825610 14.648283 21.395382
2052 2 0.0 24.141475 29.180005 19.697635
2053 3 0.0 24.011644 30.071699 19.366537
2054 3 0.0 23.761031 28.614464 19.021598
2055 1 0.0 29.928894 27.910744 18.775418
2056 2 0.0 30.426310 26.388356 19.078421
2057 2 0.0 30.284443 28.301758 17.233473
2058 2 0.0 30.686667 28.941174 19.785812
2059 2 0.0 28.318156 28.011689 19.003966
2060 3 0.0 29.484445 26.537132 19.189578
2061 3 0.0 29.699830 27.547259 17.336223
2062 3 0.0 30.153753 28.268860 20.216621
2063 2 0.0 15.696720 36.924094 4.657836
2064 3 0.0 16.553291 36.542208 4.452776
2065 3 0.0 15.455003 36.534162 5.501119
2066 2 0.0 21.123230 30.017762 14.095033
2067 3 0.0 20.809214 30.878777 14.442089
2068 3 0.0 20.380837 29.378253 14.111807
2069 3 0.0 21.842338 29.685476 14.671981
2070 2 0.0 7.707118 22.373578 21.312228
2071 3 0.0 6.823626 22.475214 20.950685
2072 3 0.0 8.006912 23.271608 21.471179
2073 2 0.0 24.525187 8.665316 19.942825
2074 3 0.0 24.199107 7.893777 19.473785
2075 3 0.0 25.386015 8.837230 19.554212
2076 2 0.0 33.973135 19.259302 31.441041
2077 3 0.0 34.475823 19.871137 31.983776
2078 3 0.0 33.468722 18.738160 32.069992
2079 2 0.0 18.731310 3.929446 24.132584
2080 3 0.0 18.293543 4.334965 23.380576
2081 3 0.0 18.055608 3.893005 24.813539
2082 1 0.0 35.600984 28.305997 2.065227
2083 2 0.0 34.114116 28.810928 1.627997
2084 2 0.0 36.575579 29.596833 2.267231
2085 2 0.0 36.211175 27.341291 0.901652
2086 2 0.0 35.503064 27.474936 3.464030
2087 3 0.0 34.148166 28.310029 2.446252
2088 3 0.0 35.803611 29.578107 2.837594
2089 3 0.0 35.392369 27.032654 1.296493
2090 3 0.0 34.667159 27.810823 3.132302
2091 1 0.0 17.358405 24.959987 27.378211
2092 2 0.0 16.925302 26.253009 26.485229
2093 2 0.0 16.538679 24.973437 28.787030
2094 2 0.0 18.959041 25.019849 27.680340
2095 2 0.0 17.010598 23.593655 26.560247
2096 3 0.0 16.754456 25.401631 26.075879
2097 3 0.0 15.991201 24.933660 27.999447
2098 3 0.0 18.722659 24.986037 26.750512
2099 2 0.0 34.132750 8.104390 8.901804
2100 3 0.0 35.106885 8.204894 8.864920
2101 3 0.0 33.902083 7.512937 9.648381
2102 3 0.0 33.823172 7.697041 8.065964
2103 1 0.0 34.148661 32.362581 37.177492
2104 2 0.0 33.298722 32.890189 1.281096
2105 2 0.0 33.161140 32.242716 35.886239
2106 2 0.0 34.787384 30.900403 0.327309
2107 2 0.0 35.347399 33.417016 36.848713
2108 3 0.0 34.028548 33.455408 1.017503
2109 3 0.0 33.231685 33.122991 36.262721
2110 3 0.0 35.066955 31.608147 0.912577
2111 3 0.0 34.794055 33.652262 0.413787
2112 1 0.0 21.912614 17.810173 32.062220
2113 2 0.0 22.506064 16.310573 32.298684
2114 2 0.0 22.957535 18.908664 32.660851
2115 2 0.0 20.478465 17.953257 32.823564
2116 2 0.0 21.708391 18.068200 30.465782
2117 3 0.0 22.354725 16.546910 31.380621
2118 3 0.0 23.312205 18.346932 31.967838
2119 3 0.0 20.514493 17.268724 32.151465
2120 2 0.0 3.047530 4.816179 16.191396
2121 3 0.0 3.110306 5.774108 16.185766
2122 3 0.0 2.585365 4.610051 17.007187
2123 1 0.0 20.182811 3.381912 6.661815
2124 2 0.0 20.646716 3.601646 8.208880
2125 2 0.0 20.086672 4.826534 5.912999
2126 2 0.0 18.724085 2.655274 6.629977
2127 2 0.0 21.273774 2.444194 5.895405
2128 3 0.0 21.236450 3.057527 7.681862
2129 3 0.0 20.954611 4.605725 6.258724
2130 3 0.0 19.416886 2.155387 7.067856
2131 2 0.0 18.406663 20.925547 19.731933
2132 3 0.0 18.786886 21.540068 20.363910
2133 3 0.0 18.626313 21.295989 18.873955
2134 2 0.0 24.939943 12.424813 13.934470
2135 3 0.0 25.058025 11.600978 14.412962
2136 3 0.0 24.085785 12.752092 14.225850
2137 2 0.0 26.930192 4.072831 7.700300
2138 3 0.0 26.124349 3.837160 8.205748
2139 3 0.0 26.699272 4.148831 6.750932
2140 3 0.0 27.594162 3.360445 7.810075
2141 2 0.0 2.536098 3.186650 28.619977
2142 3 0.0 1.846404 2.830235 29.184681
2143 3 0.0 3.322085 2.688791 28.856535
2144 2 0.0 31.016418 34.446140 29.002715
2145 3 0.0 30.392872 34.788970 28.328877
2146 3 0.0 31.716217 35.114462 29.157718
2147 3 0.0 31.430354 33.624818 28.664354
2148 2 0.0 2.777827 22.999062 7.768086
2149 3 0.0 2.633662 23.836202 7.320858
2150 3 0.0 2.877338 22.360799 7.057933
2151 2 0.0 23.646335 26.946173 36.171929
2152 3 0.0 23.338817 27.850715 36.265929
2153 3 0.0 23.829501 26.659702 37.069696
2154 2 0.0 26.636783 24.820598 27.621874
2155 3 0.0 27.464734 25.248111 27.318345
2156 3 0.0 26.567883 24.915746 28.594807
2157 3 0.0 26.670169 23.867305 27.397113
2158 2 0.0 35.291545 11.700454 21.695583
2159 3 0.0 35.904690 11.824826 20.967445
2160 3 0.0 35.541284 12.369218 22.337444
2161 1 0.0 19.575217 13.481574 30.717965
2162 2 0.0 18.326032 14.130152 31.540026
2163 2 0.0 20.906922 14.393778 30.944562
2164 2 0.0 19.213621 13.433216 29.129315
2165 2 0.0 19.854291 11.969150 31.257958
2166 3 0.0 18.559215 13.234850 31.796270
2167 3 0.0 20.528857 14.021955 31.744821
2168 3 0.0 18.617912 12.937930 29.696255
2169 2 0.0 22.927965 22.821686 21.603770
2170 3 0.0 23.517124 22.081455 21.766711
2171 3 0.0 22.431475 22.566738 20.822682
2172 1 0.0 35.000780 16.472883 19.771528
2173 2 0.0 35.646342 17.580367 20.778319
2174 2 0.0 34.168808 15.370804 20.637637
2175 2 0.0 36.193128 15.728082 18.946617
2176 2 0.0 33.994842 17.212279 18.723538
2177 3 0.0 35.037971 17.932325 20.124400
2178 3 0.0 33.857843 16.274771 20.725635
2179 3 0.0 36.142355 16.677971 18.817264
2180 3 0.0 34.420873 17.794786 19.356612
2181 2 0.0 17.247305 27.135315 30.058228
2182 3 0.0 16.339623 27.202764 29.753002
2183 3 0.0 17.181579 26.711304 30.917003
2184 2 0.0 6.603648 13.555012 32.617945
2185 3 0.0 7.506266 13.182435 32.700814
2186 3 0.0 6.034985 13.169326 33.316707
2187 3 0.0 6.238814 13.312717 31.741253
2188 2 0.0 10.941085 35.767446 3.201265
2189 3 0.0 11.182818 34.908142 3.554480
2190 3 0.0 9.984072 35.738400 3.131396
2191 2 0.0 22.870137 12.036174 1.956986
2192 3 0.0 22.353998 12.612914 1.389031
2193 3 0.0 23.030643 12.557271 2.747110
2194 2 0.0 35.237786 13.899821 25.345181
2195 3 0.0 34.900474 14.790217 25.467716
2196 3 0.0 35.708418 13.706572 26.159282
2197 2 0.0 33.047777 3.029477 10.223742
2198 3 0.0 33.610119 2.960593 9.424100
2199 3 0.0 33.367800 2.389810 10.893676
2200 3 0.0 32.124786 2.803751 9.983878
2201 2 0.0 36.923393 14.413595 7.192665
2202 3 0.0 36.408198 14.056443 7.919725
2203 3 0.0 37.111368 15.318432 7.452542
2204 2 0.0 30.371912 12.023716 19.286701
2205 3 0.0 30.237353 12.974083 19.269465
2206 3 0.0 31.002588 11.857108 18.582364
2207 1 0.0 28.662476 4.768037 4.110229
2208 2 0.0 27.495346 4.161678 3.147401
2209 2 0.0 27.978920 5.580116 5.347232
2210 2 0.0 29.604728 5.781919 3.249354
2211 2 0.0 29.570911 3.548433 4.696926
2212 3 0.0 28.079905 3.507687 3.537512
2213 3 0.0 27.744599 4.650717 5.293280
2214 3 0.0 29.579376 4.878458 2.925756
2215 3 0.0 28.855459 3.278543 4.116506
2216 2 0.0 29.469277 30.744662 10.731683
2217 3 0.0 29.477724 30.667502 11.688540
2218 3 0.0 29.162931 29.888507 10.423868
2219 2 0.0 17.302717 25.497842 18.660766
2220 3 0.0 17.387471 24.976369 17.859216
2221 3 0.0 18.192837 25.809215 18.840581
2222 2 0.0 16.039220 19.472606 16.036254
2223 3 0.0 15.436947 18.731604 16.135167
2224 3 0.0 16.896089 19.121840 16.289906
2225 2 0.0 25.603226 17.416939 35.954605
2226 3 0.0 26.035881 16.669678 35.535068
2227 3 0.0 25.632942 18.113730 35.294908
2228 1 0.0 33.127553 30.250649 10.215220
2229 2 0.0 34.574379 30.934324 9.905088
2230 2 0.0 32.863242 30.244213 11.823635
2231 2 0.0 33.119474 28.719186 9.657139
2232 2 0.0 31.953116 31.104874 9.475018
2233 3 0.0 33.822387 31.376801 9.504684
2234 3 0.0 32.983484 31.114076 11.435717
2235 3 0.0 33.272650 29.393032 8.990755
2236 2 0.0 15.292894 8.214450 2.160094
2237 3 0.0 14.689042 8.520716 2.868589
2238 3 0.0 15.178475 7.248567 2.040183
2239 3 0.0 16.217538 8.394023 2.430624
2240 2 0.0 27.555630 23.782353 11.973330
2241 3 0.0 27.540975 22.836992 11.806961
2242 3 0.0 28.312737 23.913766 12.548761
2243 1 0.0 32.793128 5.242412 18.363652
2244 2 0.0 32.416452 4.266863 19.613980
2245 2 0.0 34.019083 6.227109 18.792959
2246 2 0.0 31.491834 6.138162 17.962196
2247 2 0.0 33.245142 4.337514 17.085472
2248 3 0.0 32.695033 3.813264 18.815080
2249 3 0.0 34.219312 5.289050 18.832370
2250 3 0.0 31.367228 5.188670 17.894828
2251 2 0.0 8.241711 3.577844 25.582915
2252 3 0.0 8.648758 3.317588 26.412481
2253 3 0.0 7.401590 3.965859 25.838339
2254 2 0.0 2.678032 18.541066 11.035399
2255 3 0.0 2.093327 17.794066 10.789410
2256 3 0.0 3.600723 18.216342 11.095356
2257 3 0.0 2.404077 18.884237 11.911517
2258 2 0.0 19.955388 17.087393 14.504665
2259 3 0.0 20.858884 16.776761 14.598494
2260 3 0.0 19.490783 16.705995 15.253182
2261 2 0.0 22.737173 0.052813 31.560618
2262 3 0.0 23.433180 36.746511 32.004981
2263 3 0.0 22.503085 0.750984 32.176541
2264 2 0.0 11.268606 32.350237 19.971658
2265 3 0.0 11.680250 32.298377 19.105944
2266 3 0.0 10.492634 32.899105 19.836710
2267 2 0.0 34.687901 29.056781 31.140009
2268 3 0.0 35.357480 29.147406 31.821956
2269 3 0.0 34.053869 29.751755 31.331360
2270 2 0.0 26.842919 28.728873 5.237515
2271 3 0.0 26.874949 29.634515 4.920677
2272 3 0.0 27.126466 28.201249 4.487306
2273 2 0.0 3.666946 32.466508 3.853496
2274 3 0.0 3.345167 32.839727 4.700589
2275 3 0.0 2.917646 32.037468 3.389952
2276 3 0.0 4.351976 31.791816 4.043033
2277 2 0.0 0.457173 20.665804 11.753741
2278 3 0.0 36.921180 20.993139 12.298777
2279 3 0.0 1.190375 21.255870 11.943048
2280 2 0.0 10.673955 22.355249 0.098122
2281 3 0.0 11.015417 21.495610 0.421889
2282 3 0.0 10.339368 22.872083 0.860575
2283 3 0.0 9.934344 22.190018 36.660078
