LAMMPS data file - pH=7.5, 17 Si(OH)4 + 83 Si(OH)3O- + 400 H2O + 83 H3O+

2349 atoms
3 atom types

0.0 37.455485 xlo xhi
0.0 37.455485 ylo yhi
0.0 37.455485 zlo zhi

Masses

1 28.0855  # Si
2 15.9994  # O
3 1.0079  # H

Atoms # charge

1 2 0.0 11.495547 36.425603 13.050253
2 3 0.0 11.435919 35.622624 12.527503
3 3 0.0 11.750646 36.124656 13.925442
4 2 0.0 21.262014 23.576073 34.848443
5 3 0.0 20.984015 23.998323 35.664544
6 3 0.0 20.946839 22.672559 34.925428
7 2 0.0 3.856989 37.206201 36.963830
8 3 0.0 4.314789 0.552747 37.226062
9 3 0.0 3.379213 37.451033 36.167974
10 1 0.0 23.161604 3.121548 34.751931
11 2 0.0 22.689511 4.144995 35.929464
12 2 0.0 24.558806 2.402409 35.185020
13 2 0.0 23.384459 3.952151 33.367253
14 2 0.0 22.013639 1.986635 34.525987
15 3 0.0 22.067998 3.440862 35.730674
16 3 0.0 23.821188 2.246870 35.779433
17 3 0.0 22.495899 3.995805 33.728023
18 2 0.0 8.983441 6.877517 6.520050
19 3 0.0 9.477077 7.325935 5.829510
20 3 0.0 9.636117 6.687727 7.197984
21 2 0.0 31.723251 19.191963 19.809461
22 3 0.0 32.641813 19.121270 19.539561
23 3 0.0 31.227641 19.156823 18.988037
24 2 0.0 28.086670 18.299618 7.378689
25 3 0.0 27.472989 18.977407 7.671259
26 3 0.0 27.899939 18.193529 6.443020
27 2 0.0 28.878385 26.438788 28.120436
28 3 0.0 29.778620 26.766845 27.914633
29 3 0.0 28.821645 25.491344 27.876447
30 3 0.0 28.226993 26.943393 27.589906
31 2 0.0 30.908079 9.480080 12.380792
32 3 0.0 31.147709 9.992762 11.605335
33 3 0.0 29.972200 9.654331 12.504761
34 2 0.0 8.590592 1.207671 18.118158
35 3 0.0 9.392659 1.704276 17.852691
36 3 0.0 8.246093 0.720773 17.340564
37 3 0.0 7.909500 1.842992 18.422920
38 2 0.0 26.153294 8.463520 10.552835
39 3 0.0 25.567268 7.821597 10.145270
40 3 0.0 26.319671 8.113851 11.431272
41 1 0.0 24.645033 11.072721 12.111577
42 2 0.0 24.587196 12.513298 11.351123
43 2 0.0 23.715814 9.998498 11.311890
44 2 0.0 24.092472 11.240404 13.635866
45 2 0.0 26.184648 10.538682 12.147428
46 3 0.0 25.462339 12.124247 11.417188
47 3 0.0 24.435296 10.373667 10.798866
48 3 0.0 24.860367 11.775199 13.421550
49 2 0.0 7.809714 2.354414 9.214030
50 3 0.0 8.195594 3.213298 9.026908
51 3 0.0 7.277767 2.495745 10.000578
52 2 0.0 12.042287 11.556896 36.549606
53 3 0.0 11.098382 11.508059 36.381508
54 3 0.0 12.177404 12.436383 36.909947
55 2 0.0 4.121411 33.836624 26.453332
56 3 0.0 4.758226 33.648945 25.759904
57 3 0.0 4.215934 34.777539 26.618693
58 2 0.0 32.406986 26.388815 31.565178
59 3 0.0 32.437540 27.277000 31.928212
60 3 0.0 31.656755 25.976785 31.999903
61 2 0.0 19.159580 31.326577 28.493465
62 3 0.0 19.852592 31.989468 28.537172
63 3 0.0 18.712862 31.499876 27.661593
64 1 0.0 8.375271 5.499678 21.073802
65 2 0.0 6.816786 5.124669 21.369426
66 2 0.0 8.810986 6.774188 21.991776
67 2 0.0 8.553574 5.878471 19.498485
68 2 0.0 9.319738 4.221382 21.435523
69 3 0.0 7.445299 4.423525 21.556423
70 3 0.0 8.519360 6.001978 22.481924
71 3 0.0 8.228862 4.991132 19.668164
72 2 0.0 30.542814 25.133325 35.433153
73 3 0.0 30.945587 24.395286 34.929694
74 3 0.0 31.043666 25.955120 35.248221
75 3 0.0 30.601067 24.934082 36.390915
76 2 0.0 36.284713 26.574392 3.901402
77 3 0.0 36.110421 27.518437 3.900115
78 3 0.0 37.108585 26.481081 3.417534
79 2 0.0 37.201345 36.727864 2.564681
80 3 0.0 36.462228 36.386326 2.056097
81 3 0.0 36.941450 0.167158 2.795821
82 2 0.0 0.737177 11.509212 11.107703
83 3 0.0 0.446206 10.946884 10.386091
84 3 0.0 0.047906 12.172460 11.188988
85 2 0.0 36.530546 5.751816 14.270086
86 3 0.0 36.379378 6.560730 14.764461
87 3 0.0 35.651875 5.448787 14.029855
88 2 0.0 11.444035 29.489332 14.623041
89 3 0.0 11.259710 30.307238 15.090646
90 3 0.0 10.853433 28.845908 15.021531
91 2 0.0 35.623460 28.582988 24.989343
92 3 0.0 34.694095 28.636585 25.223878
93 3 0.0 35.712176 27.734220 24.549658
94 2 0.0 32.457058 1.331081 14.116472
95 3 0.0 32.525790 2.206761 13.729095
96 3 0.0 33.181038 0.837106 13.724756
97 2 0.0 16.401915 24.830432 8.331429
98 3 0.0 16.121293 25.336668 7.540622
99 3 0.0 16.383066 23.873736 8.119819
100 3 0.0 15.772870 25.007055 9.061846
101 2 0.0 5.982904 37.311020 2.370087
102 3 0.0 6.246070 0.187449 1.508590
103 3 0.0 6.609178 0.249879 2.981539
104 2 0.0 37.148888 36.208340 18.946200
105 3 0.0 0.080624 36.960178 19.400511
106 3 0.0 36.573734 35.802715 19.599091
107 2 0.0 32.260739 8.353603 14.536282
108 3 0.0 31.586222 8.354031 15.219383
109 3 0.0 33.035503 7.980770 14.963290
110 2 0.0 12.601022 11.996492 7.673196
111 3 0.0 11.871048 11.936818 8.293823
112 3 0.0 12.777798 11.087131 7.421378
113 2 0.0 20.643870 10.299606 13.234447
114 3 0.0 19.803422 10.653945 13.533931
115 3 0.0 20.716868 10.591230 12.322731
116 1 0.0 10.173936 24.295808 5.752937
117 2 0.0 10.382011 25.534087 4.713577
118 2 0.0 10.199875 22.887586 4.932488
119 2 0.0 8.739510 24.457158 6.510095
120 2 0.0 11.374347 24.304402 6.855588
121 3 0.0 11.049108 25.464426 5.400403
122 3 0.0 11.000631 23.412506 4.862866
123 3 0.0 9.352561 25.183820 6.643248
124 2 0.0 14.300199 8.366224 28.059973
125 3 0.0 14.359875 8.606646 27.132484
126 3 0.0 13.379475 8.126306 28.187667
127 1 0.0 6.586412 8.557970 14.651414
128 2 0.0 6.741289 10.122355 15.082242
129 2 0.0 7.088454 7.605184 15.874954
130 2 0.0 7.493009 8.266408 13.328548
131 2 0.0 5.022896 8.237934 14.319910
132 3 0.0 5.846774 9.847011 14.868630
133 3 0.0 6.355475 8.187214 16.088453
134 3 0.0 6.812028 8.933427 13.214750
135 1 0.0 5.510089 22.719769 22.118274
136 2 0.0 3.926045 22.600512 22.483627
137 2 0.0 5.886788 21.625611 20.970312
138 2 0.0 6.398889 22.433465 23.454300
139 2 0.0 5.828634 24.219489 21.564857
140 3 0.0 4.201727 23.456764 22.148318
141 3 0.0 5.218737 22.266532 20.716288
142 3 0.0 5.796660 23.178221 23.519549
143 2 0.0 18.329616 13.136056 21.868810
144 3 0.0 17.572852 12.623259 22.161976
145 3 0.0 17.951773 13.839843 21.336346
146 2 0.0 15.141749 3.872753 14.532699
147 3 0.0 14.720612 4.467371 13.877357
148 3 0.0 14.479454 3.628858 15.212611
149 3 0.0 15.881058 4.348912 14.965243
150 2 0.0 21.208854 33.042700 33.464932
151 3 0.0 20.540471 32.879792 34.134503
152 3 0.0 21.679841 33.818162 33.778667
153 2 0.0 20.152896 27.046417 34.429049
154 3 0.0 19.327009 27.508688 34.589725
155 3 0.0 19.907662 26.118741 34.399425
156 2 0.0 15.616954 33.508961 32.882417
157 3 0.0 16.217265 33.813221 33.566999
158 3 0.0 15.476399 34.278598 32.326086
159 2 0.0 8.770191 15.620968 23.855044
160 3 0.0 9.151801 14.876904 23.383513
161 3 0.0 9.520065 16.052383 24.271180
162 2 0.0 0.393759 4.748620 28.308881
163 3 0.0 0.447157 5.054868 29.217154
164 3 0.0 1.296012 4.512878 28.080926
165 2 0.0 2.995990 6.770407 0.770263
166 3 0.0 3.347835 6.131781 1.394732
167 3 0.0 2.702372 7.503807 1.315710
168 2 0.0 7.918878 18.264505 32.033931
169 3 0.0 7.348445 17.696629 31.474893
170 3 0.0 8.697229 17.745010 32.324955
171 3 0.0 7.411185 18.546104 32.823455
172 2 0.0 6.462310 0.740990 36.562197
173 3 0.0 6.181111 1.008117 35.684034
174 3 0.0 6.866795 1.527712 36.935106
175 2 0.0 36.122425 15.836836 2.901511
176 3 0.0 35.558530 16.136520 3.618318
177 3 0.0 36.185650 16.592598 2.312931
178 2 0.0 21.341563 6.619764 10.063684
179 3 0.0 21.641529 6.442663 10.958254
180 3 0.0 21.231530 7.572876 10.030977
181 2 0.0 3.516229 29.554672 19.435161
182 3 0.0 4.362848 29.842545 19.784396
183 3 0.0 3.223729 30.282952 18.882303
184 1 0.0 14.208574 29.200964 22.886599
185 2 0.0 14.551483 30.207464 24.122023
186 2 0.0 12.608875 29.246036 22.577031
187 2 0.0 14.641842 27.681559 23.287332
188 2 0.0 15.032097 29.668799 21.560008
189 3 0.0 14.997086 30.411754 23.296612
190 3 0.0 13.063643 30.086531 22.485628
191 3 0.0 15.357912 28.320968 23.287225
192 1 0.0 24.146686 34.871463 28.277910
193 2 0.0 24.567466 34.150580 26.877849
194 2 0.0 22.551410 35.205586 28.258989
195 2 0.0 24.989720 36.255732 28.451095
196 2 0.0 24.478147 33.873955 29.523707
197 3 0.0 24.729800 33.629223 27.667427
198 3 0.0 22.772251 34.275655 28.169220
199 3 0.0 25.523963 35.460780 28.386018
200 2 0.0 22.789890 21.520845 9.579357
201 3 0.0 21.945422 21.792056 9.212044
202 3 0.0 22.571361 21.151434 10.438065
203 2 0.0 18.294885 28.929361 19.941890
204 3 0.0 18.699004 29.667522 20.403850
205 3 0.0 18.919469 28.709381 19.246835
206 2 0.0 30.359769 34.980446 12.592839
207 3 0.0 30.741733 35.576957 13.240819
208 3 0.0 31.024487 34.298372 12.472317
209 2 0.0 32.657448 27.367493 21.674736
210 3 0.0 32.102544 26.620098 21.909433
211 3 0.0 33.474586 26.971948 21.362600
212 2 0.0 21.981277 0.381968 21.227856
213 3 0.0 21.794150 36.899558 21.311132
214 3 0.0 21.217117 0.815181 21.615135
215 2 0.0 31.885421 7.928483 23.695376
216 3 0.0 32.330346 8.390056 24.409933
217 3 0.0 31.264513 7.343915 24.136233
218 2 0.0 4.455895 20.809090 6.827214
219 3 0.0 4.530294 20.488640 5.925340
220 3 0.0 4.235873 21.738962 6.734867
221 2 0.0 0.850024 23.923099 5.928460
222 3 0.0 1.544222 24.517950 5.635471
223 3 0.0 0.155525 24.022391 5.273165
224 2 0.0 5.318046 21.931188 29.590605
225 3 0.0 5.780429 21.610510 30.368402
226 3 0.0 4.913714 22.754676 29.873416
227 2 0.0 6.683995 13.396180 22.668162
228 3 0.0 6.600929 14.343711 22.538220
229 3 0.0 5.779048 13.077311 22.699667
230 2 0.0 13.383496 5.889199 26.973028
231 3 0.0 14.162423 5.315580 26.816077
232 3 0.0 12.568744 5.354590 26.869241
233 3 0.0 13.378897 6.608441 26.307393
234 1 0.0 17.650800 8.577721 8.879023
235 2 0.0 18.520625 7.238072 8.553994
236 2 0.0 16.257640 8.156228 9.612745
237 2 0.0 17.317445 9.359793 7.488290
238 2 0.0 18.507489 9.556793 9.861063
239 3 0.0 18.953294 7.873006 9.129544
240 3 0.0 17.056048 7.897909 10.079023
241 3 0.0 18.252074 9.256172 7.681505
242 2 0.0 32.485391 2.187269 34.719143
243 3 0.0 32.814359 2.809227 35.372249
244 3 0.0 32.684486 2.597536 33.874369
245 2 0.0 37.178369 12.317848 22.616819
246 3 0.0 0.484700 12.662311 22.145035
247 3 0.0 36.826077 11.636131 22.039973
248 2 0.0 22.354436 16.825352 16.162379
249 3 0.0 22.045925 17.570828 15.642104
250 3 0.0 21.649972 16.665058 16.794548
251 2 0.0 25.283110 28.397477 14.896810
252 3 0.0 25.165660 27.660829 15.501090
253 3 0.0 24.449677 28.456178 14.424005
254 2 0.0 15.190512 32.967533 26.110942
255 3 0.0 15.584746 33.628582 26.684696
256 3 0.0 14.268016 32.938873 26.375101
257 2 0.0 23.681521 27.419445 12.111371
258 3 0.0 24.398780 27.147848 12.688758
259 3 0.0 24.107599 27.613941 11.273380
260 1 0.0 36.765767 3.191326 21.066876
261 2 0.0 35.833112 3.906222 19.937283
262 2 0.0 0.597618 2.496290 20.348134
263 2 0.0 35.898298 2.052639 21.846484
264 2 0.0 37.278554 4.310153 22.135601
265 3 0.0 36.179562 4.496625 20.610333
266 3 0.0 0.525373 3.445127 20.221292
267 3 0.0 35.549090 2.944452 21.912229
268 2 0.0 26.380285 7.681311 35.050596
269 3 0.0 26.815506 7.594750 35.901883
270 3 0.0 27.052220 8.051136 34.473247
271 1 0.0 6.822248 22.514372 34.102428
272 2 0.0 6.030412 23.333483 32.936686
273 2 0.0 7.411745 21.125435 33.485785
274 2 0.0 5.794800 22.174747 35.321405
275 2 0.0 8.052034 23.423822 34.665833
276 3 0.0 6.774319 23.799074 33.325822
277 3 0.0 7.735462 21.925545 33.065511
278 3 0.0 5.910687 23.109729 35.137068
279 2 0.0 10.822478 7.137947 28.100065
280 3 0.0 11.666025 7.514917 27.839446
281 3 0.0 10.825740 7.180736 29.059105
282 2 0.0 20.446432 10.537446 9.598713
283 3 0.0 21.051953 11.235336 9.272072
284 3 0.0 19.625712 10.552370 9.063365
285 3 0.0 20.219835 10.724978 10.533531
286 1 0.0 24.828517 27.960962 30.338123
287 2 0.0 24.516187 26.675244 31.290110
288 2 0.0 26.229577 28.652892 30.801980
289 2 0.0 23.617313 29.043478 30.472454
290 2 0.0 24.950990 27.472234 28.787947
291 3 0.0 24.604324 26.475930 30.355174
292 3 0.0 26.302171 27.737216 30.522933
293 3 0.0 23.354145 28.178005 30.151053
294 2 0.0 13.535992 19.875500 37.378507
295 3 0.0 14.392551 19.860602 36.945282
296 3 0.0 13.299370 20.805277 37.412044
297 1 0.0 9.666008 18.872355 35.701985
298 2 0.0 8.654214 19.090487 36.961188
299 2 0.0 10.963399 19.844213 35.872780
300 2 0.0 8.892813 19.237155 34.314184
301 2 0.0 10.153607 17.317567 35.659787
302 3 0.0 8.991166 18.197107 36.861511
303 3 0.0 10.833380 19.212373 36.583747
304 3 0.0 8.496656 18.527288 34.824820
305 2 0.0 31.124967 7.825418 5.148336
306 3 0.0 30.878926 8.508825 5.776045
307 3 0.0 30.402564 7.807724 4.516339
308 2 0.0 32.629017 16.104656 31.950346
309 3 0.0 32.479193 16.985326 31.598815
310 3 0.0 33.514920 15.876741 31.659091
311 2 0.0 24.840018 17.442464 10.480671
312 3 0.0 25.281884 18.257777 10.728904
313 3 0.0 24.257179 17.694179 9.760575
314 2 0.0 20.884130 21.583232 16.539400
315 3 0.0 20.671687 21.895790 15.656917
316 3 0.0 21.076749 22.381022 17.037423
317 2 0.0 11.192693 17.117301 1.288471
318 3 0.0 11.668471 16.370551 1.708471
319 3 0.0 11.555513 17.959814 1.633337
320 3 0.0 10.242645 17.060824 1.522176
321 1 0.0 27.425347 34.209678 4.840270
322 2 0.0 27.448246 35.467426 5.876825
323 2 0.0 28.809817 33.361527 4.984424
324 2 0.0 27.285092 34.765590 3.314429
325 2 0.0 26.158232 33.244170 5.185400
326 3 0.0 26.729484 34.845100 6.009837
327 3 0.0 28.283348 33.417964 5.785202
328 3 0.0 26.562646 35.002496 3.900557
329 1 0.0 18.232098 21.692617 12.669665
330 2 0.0 17.526678 22.474247 13.913987
331 2 0.0 17.602149 20.194721 12.541715
332 2 0.0 19.836926 21.586328 12.934486
333 2 0.0 17.962638 22.515173 11.288472
334 3 0.0 17.416578 22.892898 13.057128
335 3 0.0 16.969247 20.910410 12.447779
336 3 0.0 19.491266 22.480885 12.891034
337 2 0.0 0.871468 7.027388 5.593761
338 3 0.0 0.164573 6.734868 6.173702
339 3 0.0 0.854066 7.985131 5.657210
340 2 0.0 0.022228 18.372644 15.529685
341 3 0.0 37.288161 17.764313 16.247740
342 3 0.0 36.961741 19.155703 15.735092
343 2 0.0 20.479409 28.209089 22.879514
344 3 0.0 21.245021 28.661446 23.241191
345 3 0.0 19.814207 28.273095 23.568723
346 2 0.0 29.097295 20.439145 5.291807
347 3 0.0 30.029744 20.441471 5.520136
348 3 0.0 28.716557 21.138857 5.827569
349 2 0.0 32.805909 13.434703 0.830729
350 3 0.0 31.939687 13.559182 1.225399
351 3 0.0 33.206350 12.730751 1.346189
352 2 0.0 23.354800 34.151555 7.466504
353 3 0.0 23.289320 34.230182 6.511973
354 3 0.0 23.810747 33.318793 7.608698
355 2 0.0 9.633983 30.640119 0.250154
356 3 0.0 9.455675 30.738120 36.767448
357 3 0.0 8.890097 30.134012 0.584951
358 2 0.0 6.030585 34.466949 4.761988
359 3 0.0 6.105507 34.357705 5.712804
360 3 0.0 5.324178 33.869412 4.505983
361 2 0.0 3.686947 37.170440 34.594084
362 3 0.0 4.095425 36.389189 34.214094
363 3 0.0 4.000303 0.439964 34.048401
364 1 0.0 8.674773 33.516166 24.730590
365 2 0.0 8.835001 32.407824 23.546190
366 2 0.0 8.356551 32.762592 26.140470
367 2 0.0 7.449333 34.527351 24.366308
368 2 0.0 10.058207 34.366897 24.869392
369 3 0.0 9.608597 32.956176 23.696057
370 3 0.0 9.189602 32.519885 25.729715
371 3 0.0 8.165776 34.511473 23.727515
372 1 0.0 19.823885 6.184122 20.041239
373 2 0.0 21.218625 6.860910 20.544784
374 2 0.0 20.128400 4.705716 19.426028
375 2 0.0 19.148566 7.122291 18.892029
376 2 0.0 18.799948 6.047573 21.302115
377 3 0.0 20.554974 6.742869 21.228330
378 3 0.0 20.377473 4.821551 20.345890
379 3 0.0 19.271697 7.548735 19.743254
380 2 0.0 3.212350 13.963471 36.600055
381 3 0.0 3.591240 13.087554 36.704033
382 3 0.0 3.923911 14.491148 36.230138
383 2 0.0 18.388179 29.362578 15.912015
384 3 0.0 17.782046 30.106365 15.880665
385 3 0.0 19.173028 29.709656 16.342305
386 2 0.0 3.130732 8.851412 30.536650
387 3 0.0 2.924754 8.434948 29.696572
388 3 0.0 2.280430 8.950263 30.971178
389 2 0.0 19.823553 29.295600 34.804743
390 3 0.0 19.320650 29.457051 35.606380
391 3 0.0 20.264123 30.129374 34.624971
392 2 0.0 26.389498 27.476541 26.961497
393 3 0.0 26.243778 28.273863 26.447061
394 3 0.0 26.362603 27.771092 27.874796
395 2 0.0 8.883942 35.792020 2.442530
396 3 0.0 9.578636 35.339529 2.926525
397 3 0.0 9.350960 36.382275 1.846633
398 2 0.0 3.677776 17.658029 3.560409
399 3 0.0 4.174537 18.012259 2.819227
400 3 0.0 4.299871 17.663158 4.291553
401 2 0.0 20.533462 18.494240 37.253388
402 3 0.0 20.262002 19.042389 0.563568
403 3 0.0 19.797941 18.465068 36.606427
404 3 0.0 20.719897 17.583742 0.108765
405 2 0.0 32.489723 36.256517 15.879712
406 3 0.0 33.396433 36.259044 16.251559
407 3 0.0 31.887450 35.813258 16.513106
408 3 0.0 32.492389 35.753897 15.038424
409 1 0.0 33.542114 22.011950 17.970269
410 2 0.0 32.884393 21.368848 16.624638
411 2 0.0 32.791127 23.414420 18.325227
412 2 0.0 35.127866 22.293216 17.718913
413 2 0.0 33.365071 20.971315 19.212297
414 3 0.0 32.823745 20.818392 17.408806
415 3 0.0 32.221994 22.641427 18.312196
416 3 0.0 34.859081 21.376112 17.627950
417 2 0.0 24.127287 36.462530 13.071371
418 3 0.0 23.873474 36.563530 12.151057
419 3 0.0 23.936605 37.315423 13.468629
420 2 0.0 22.252371 27.953684 19.536402
421 3 0.0 22.450315 27.374411 20.275902
422 3 0.0 21.486322 28.456419 19.822804
423 2 0.0 31.675921 10.397053 29.623253
424 3 0.0 31.447716 11.345653 29.715350
425 3 0.0 32.321573 10.294691 28.893147
426 3 0.0 30.863992 9.894580 29.402590
427 2 0.0 21.253512 34.496852 2.384913
428 3 0.0 20.339157 34.749254 2.532721
429 3 0.0 21.470626 33.931653 3.129904
430 2 0.0 31.984820 19.988919 1.931101
431 3 0.0 32.835631 19.604218 2.154093
432 3 0.0 31.428965 19.800570 2.690805
433 2 0.0 6.066311 17.116385 26.517434
434 3 0.0 5.620021 17.783793 25.991134
435 3 0.0 5.448150 16.382623 26.550157
436 1 0.0 2.160431 30.473511 2.455447
437 2 0.0 2.578115 30.209152 0.902207
438 2 0.0 1.342669 29.183744 3.025242
439 2 0.0 1.216069 31.798979 2.546089
440 2 0.0 3.504871 30.702170 3.348249
441 3 0.0 3.314139 30.354519 1.501155
442 3 0.0 2.235196 28.997755 2.724570
443 3 0.0 2.092323 31.949133 2.183829
444 2 0.0 16.439996 4.756971 34.136825
445 3 0.0 15.536179 5.077462 34.181560
446 3 0.0 16.949725 5.514785 33.841030
447 1 0.0 20.508669 34.804606 36.779812
448 2 0.0 19.426197 35.775616 0.060734
449 2 0.0 21.979727 35.027584 37.445521
450 2 0.0 20.570574 35.166035 35.191594
451 2 0.0 20.058177 33.249189 36.965915
452 3 0.0 19.236298 34.836567 0.121776
453 3 0.0 21.300911 34.725379 0.597885
454 3 0.0 19.710635 34.881625 35.509740
455 3 0.0 19.472443 33.892545 37.371635
456 1 0.0 17.812840 5.596889 23.806625
457 2 0.0 19.287848 4.990029 23.470511
458 2 0.0 16.669523 4.650847 23.132289
459 2 0.0 17.695477 7.105974 23.201822
460 2 0.0 17.598514 5.640706 25.421879
461 3 0.0 19.077732 5.051360 24.405225
462 3 0.0 17.236310 4.210480 23.769807
463 3 0.0 18.394133 6.981172 23.848277
464 2 0.0 23.537196 6.619851 1.959578
465 3 0.0 23.784902 5.699927 2.077822
466 3 0.0 24.179606 6.963662 1.334515
467 2 0.0 5.781199 27.002290 35.818120
468 3 0.0 6.284859 27.657452 36.344892
469 3 0.0 5.717691 27.319235 34.892965
470 3 0.0 4.877878 26.922294 36.189621
471 2 0.0 30.720779 5.209640 6.455645
472 3 0.0 30.977051 5.892713 5.801324
473 3 0.0 30.640834 5.628542 7.337988
474 3 0.0 31.420725 4.524641 6.491032
475 2 0.0 32.902760 30.405472 32.683162
476 3 0.0 32.911872 30.032043 31.798816
477 3 0.0 32.394720 31.215473 32.597171
478 2 0.0 5.203771 17.585865 13.850838
479 3 0.0 5.060902 17.746338 12.915190
480 3 0.0 5.195713 16.629596 13.935012
481 2 0.0 34.817147 24.078834 5.112750
482 3 0.0 35.114504 23.175998 4.978336
483 3 0.0 33.892065 23.994029 5.354891
484 2 0.0 34.559775 8.032765 29.406853
485 3 0.0 33.948224 8.169307 28.679556
486 3 0.0 34.318463 8.700642 30.052847
487 2 0.0 0.136562 6.732489 10.287697
488 3 0.0 0.862937 6.531697 9.661229
489 3 0.0 0.510722 6.828123 11.188396
490 3 0.0 36.955055 5.987751 10.285341
491 2 0.0 18.859538 11.814066 6.184959
492 3 0.0 19.690975 11.441656 5.882263
493 3 0.0 18.299281 11.051628 6.347442
494 1 0.0 7.351840 10.365297 34.441315
495 2 0.0 6.733151 9.595909 33.144332
496 2 0.0 7.458878 9.324024 35.690793
497 2 0.0 6.379373 11.607586 34.851102
498 2 0.0 8.835959 10.933667 34.079035
499 3 0.0 7.610629 9.964002 33.017284
500 3 0.0 7.962604 9.076380 34.911991
501 3 0.0 6.744347 11.653454 33.964372
502 2 0.0 14.823190 26.650586 27.272506
503 3 0.0 14.545456 26.575675 28.188395
504 3 0.0 15.745806 26.911348 27.321327
505 2 0.0 31.359447 24.435550 14.092368
506 3 0.0 31.792781 25.292035 14.076386
507 3 0.0 31.438680 24.142679 15.003163
508 2 0.0 28.079330 14.569868 29.165302
509 3 0.0 28.972762 14.218614 29.165163
510 3 0.0 27.682658 14.219049 28.364566
511 2 0.0 35.795139 10.530136 14.901458
512 3 0.0 34.973588 10.961708 14.655694
513 3 0.0 35.758063 9.675763 14.465257
514 1 0.0 27.548207 0.590357 36.996356
515 2 0.0 27.571491 2.129098 36.459109
516 2 0.0 26.420580 0.439421 0.708165
517 2 0.0 29.011603 0.203886 0.145859
518 2 0.0 27.189153 37.044510 35.761320
519 3 0.0 27.366809 1.469578 35.792221
520 3 0.0 26.085545 0.724277 37.310298
521 3 0.0 29.009600 0.458468 36.675718
522 2 0.0 8.413496 0.503239 8.597322
523 3 0.0 7.640043 37.392820 8.541437
524 3 0.0 8.239196 1.211418 7.973061
525 2 0.0 28.868654 30.084435 12.916847
526 3 0.0 27.979499 29.745094 13.042747
527 3 0.0 29.345242 29.362277 12.500973
528 1 0.0 11.093871 25.976156 15.350966
529 2 0.0 11.357362 24.385821 15.592435
530 2 0.0 12.025371 26.500535 14.120424
531 2 0.0 11.468849 26.800908 16.705985
532 2 0.0 9.523901 26.217360 14.985021
533 3 0.0 10.452657 24.618095 15.370720
534 3 0.0 11.405430 25.804117 13.891786
535 3 0.0 10.777376 26.143098 16.809677
536 2 0.0 20.177086 6.079898 4.543875
537 3 0.0 19.263679 5.794976 4.622021
538 3 0.0 20.569597 5.865528 5.393334
539 2 0.0 14.676079 32.123893 0.878911
540 3 0.0 14.334670 31.645939 1.638253
541 3 0.0 14.167155 32.937624 0.857988
542 2 0.0 33.721069 36.720976 30.997835
543 3 0.0 33.373802 36.709929 31.892756
544 3 0.0 34.653891 36.518030 31.099112
545 2 0.0 11.979967 9.278942 28.833614
546 3 0.0 12.328975 8.934185 29.658803
547 3 0.0 12.391699 10.141060 28.739650
548 2 0.0 7.656012 8.841977 1.949034
549 3 0.0 7.627916 9.747083 1.630296
550 3 0.0 7.182443 8.865941 2.783754
551 1 0.0 25.679335 33.540873 32.253632
552 2 0.0 24.776090 32.210882 32.522281
553 2 0.0 25.193102 34.737757 33.247587
554 2 0.0 25.500880 34.015021 30.704362
555 2 0.0 27.247268 33.199832 32.540299
556 3 0.0 25.718146 32.097846 32.668410
557 3 0.0 25.506922 33.945532 33.689738
558 3 0.0 25.854259 33.129901 30.819625
559 2 0.0 29.185084 17.263552 34.971931
560 3 0.0 28.981363 17.315445 34.035233
561 3 0.0 29.827093 17.962251 35.117686
562 2 0.0 13.520341 16.756854 13.668953
563 3 0.0 13.191413 15.947976 13.270050
564 3 0.0 13.347201 16.650230 14.607171
565 2 0.0 30.044770 29.371901 35.658519
566 3 0.0 30.934478 29.391486 35.298469
567 3 0.0 29.666460 30.218937 35.411513
568 2 0.0 17.398315 35.479569 5.639119
569 3 0.0 18.350503 35.593361 5.594525
570 3 0.0 17.216985 35.331174 6.570086
571 2 0.0 8.868720 3.066820 14.466934
572 3 0.0 9.340377 3.857724 14.195621
573 3 0.0 9.428970 2.670938 15.138497
574 2 0.0 6.319152 31.394156 34.694706
575 3 0.0 5.539090 31.715551 34.236658
576 3 0.0 6.597256 32.131528 35.242923
577 2 0.0 30.283826 37.318751 24.898039
578 3 0.0 30.349026 0.751245 25.307479
579 3 0.0 29.438182 36.904606 25.169645
580 3 0.0 31.026382 36.765389 25.218665
581 2 0.0 25.903304 23.990634 26.981782
582 3 0.0 25.800340 23.077916 26.702596
583 3 0.0 25.656554 24.507326 26.211234
584 2 0.0 16.928508 7.478982 2.377581
585 3 0.0 17.083901 8.375266 2.012989
586 3 0.0 17.731610 7.187205 2.857469
587 3 0.0 16.757708 6.859771 1.637443
588 2 0.0 0.966082 1.128407 6.100889
589 3 0.0 0.496530 0.271332 6.173982
590 3 0.0 1.930487 0.959949 6.056778
591 3 0.0 0.773179 1.665680 6.897460
592 2 0.0 35.653148 8.357728 26.054210
593 3 0.0 35.111641 8.347684 26.846844
594 3 0.0 35.250803 9.027406 25.496313
595 2 0.0 36.010452 24.475343 15.657354
596 3 0.0 35.704881 25.281810 15.235646
597 3 0.0 35.621651 24.500308 16.534742
598 2 0.0 17.836924 4.821749 29.242958
599 3 0.0 17.346452 4.466084 28.498284
600 3 0.0 18.134778 4.047865 29.726680
601 2 0.0 0.424488 21.475753 28.278627
602 3 0.0 1.308649 21.266796 27.968470
603 3 0.0 0.299163 22.398361 28.044774
604 2 0.0 13.024650 29.935812 17.122631
605 3 0.0 13.014960 28.982556 17.009459
606 3 0.0 12.651343 30.278785 16.307393
607 2 0.0 12.013865 31.865000 14.332419
608 3 0.0 12.235970 32.782098 14.067841
609 3 0.0 12.818883 31.432189 14.686002
610 3 0.0 11.708092 31.371433 13.542930
611 2 0.0 29.163887 15.662362 18.522159
612 3 0.0 29.857735 15.018302 18.681410
613 3 0.0 28.968576 15.579216 17.585921
614 2 0.0 9.600233 28.059183 8.866982
615 3 0.0 10.173182 28.705696 8.448234
616 3 0.0 8.710911 28.361284 8.668384
617 2 0.0 11.717469 15.038451 16.884352
618 3 0.0 12.156509 14.995728 16.031697
619 3 0.0 11.255237 15.879794 16.875179
620 2 0.0 22.208971 20.806216 32.581855
621 3 0.0 22.774554 20.434811 33.290780
622 3 0.0 22.633395 20.636928 31.714903
623 3 0.0 22.128869 21.774070 32.713164
624 2 0.0 24.370533 27.215485 21.977945
625 3 0.0 25.157600 26.653502 22.136377
626 3 0.0 23.600500 26.638905 21.790845
627 3 0.0 24.538195 27.785124 21.198329
628 2 0.0 18.056055 19.770186 36.560796
629 3 0.0 17.276742 19.290123 36.271296
630 3 0.0 18.108970 20.523240 35.967745
631 2 0.0 20.226527 31.702536 22.013379
632 3 0.0 20.999921 31.394260 21.535439
633 3 0.0 19.580813 31.000498 21.904770
634 2 0.0 29.006789 35.754983 35.689131
635 3 0.0 29.156669 34.930070 35.221527
636 3 0.0 29.179772 36.436826 35.035857
637 2 0.0 26.826668 28.505452 22.175982
638 3 0.0 26.992448 28.873395 23.069030
639 3 0.0 27.216630 27.607862 22.124397
640 3 0.0 27.260029 29.079238 21.510122
641 2 0.0 32.580078 20.953631 26.302900
642 3 0.0 33.074605 20.410217 25.685045
643 3 0.0 32.394061 20.369539 27.041706
644 2 0.0 33.178012 14.981099 23.682963
645 3 0.0 32.625476 15.340196 22.984856
646 3 0.0 33.375766 15.734035 24.244729
647 2 0.0 4.319216 33.924388 36.228518
648 3 0.0 4.056060 33.097367 36.638864
649 3 0.0 5.203026 33.756327 35.893504
650 1 0.0 21.062831 17.663565 29.050330
651 2 0.0 22.379463 17.499158 28.103572
652 2 0.0 21.515783 17.660962 30.616129
653 2 0.0 20.039956 16.423902 28.778554
654 2 0.0 20.316121 19.070239 28.703065
655 3 0.0 21.877466 18.305449 27.963947
656 3 0.0 21.896667 18.363943 30.084768
657 3 0.0 20.231148 16.967880 28.011004
658 1 0.0 34.774089 9.142986 17.791916
659 2 0.0 33.717066 9.715006 18.893005
660 2 0.0 35.737210 8.029078 18.490848
661 2 0.0 35.685107 10.369889 17.224770
662 2 0.0 33.956973 8.457972 16.559043
663 3 0.0 33.318069 9.292754 18.128737
664 3 0.0 34.799949 7.821931 18.506073
665 3 0.0 34.741149 10.463614 17.077262
666 1 0.0 36.844633 29.137507 18.002692
667 2 0.0 35.918491 30.448305 17.718138
668 2 0.0 0.774893 29.598162 18.726851
669 2 0.0 37.188803 28.398610 16.591140
670 2 0.0 36.040859 28.104952 18.974637
671 3 0.0 35.519170 29.784827 18.285536
672 3 0.0 37.429091 29.814900 19.209100
673 3 0.0 36.253639 28.461166 16.798880
674 2 0.0 14.576259 17.940541 30.058387
675 3 0.0 14.368357 18.840704 30.319315
676 3 0.0 15.143419 17.611582 30.759611
677 1 0.0 15.589372 7.955031 15.976041
678 2 0.0 17.146200 8.357344 15.708964
679 2 0.0 15.467971 7.167386 17.397933
680 2 0.0 15.063823 6.988806 14.773083
681 2 0.0 14.679493 9.306587 16.024182
682 3 0.0 16.537369 9.098321 15.752294
683 3 0.0 15.818641 8.059111 17.456742
684 3 0.0 15.362546 7.857576 14.494512
685 2 0.0 35.149147 35.543158 11.840265
686 3 0.0 34.522133 36.181929 12.239295
687 3 0.0 36.018566 35.980507 11.725211
688 3 0.0 34.810736 35.272034 10.961420
689 2 0.0 22.807083 10.294131 29.445369
690 3 0.0 22.064144 9.800004 29.850684
691 3 0.0 22.641201 10.385614 28.483852
692 3 0.0 23.635735 9.788133 29.578422
693 1 0.0 6.241786 9.610879 27.442908
694 2 0.0 5.714901 11.080446 27.911591
695 2 0.0 7.545527 9.782824 26.479791
696 2 0.0 5.058552 8.845160 26.624047
697 2 0.0 6.648163 8.735085 28.756202
698 3 0.0 5.976684 10.496164 28.626912
699 3 0.0 7.644875 10.141092 27.364875
700 3 0.0 4.838242 9.082908 27.527672
701 2 0.0 34.969943 1.683453 1.324695
702 3 0.0 34.732033 2.249944 2.062317
703 3 0.0 35.864924 1.396577 1.520426
704 2 0.0 2.670042 1.381694 2.717866
705 3 0.0 1.940454 0.776414 2.869315
706 3 0.0 2.259151 2.248322 2.676337
707 2 0.0 9.721808 35.060779 15.007422
708 3 0.0 10.113513 34.793630 15.865092
709 3 0.0 10.444240 35.241664 14.370419
710 3 0.0 9.199968 35.880020 15.137525
711 2 0.0 16.245698 33.991596 18.626972
712 3 0.0 16.345459 33.073587 18.889476
713 3 0.0 15.522943 33.984089 17.995173
714 2 0.0 22.364920 21.640525 4.584319
715 3 0.0 21.851727 21.181683 5.253422
716 3 0.0 21.930717 22.491451 4.489490
717 1 0.0 14.113643 2.559473 35.615167
718 2 0.0 14.978643 2.695196 36.990032
719 2 0.0 14.611251 1.246323 34.787566
720 2 0.0 14.331880 3.892022 34.702157
721 2 0.0 12.532799 2.404351 35.980911
722 3 0.0 14.031579 2.599204 37.114353
723 3 0.0 14.269931 1.066557 35.666648
724 3 0.0 13.954651 4.052316 35.570261
725 2 0.0 16.137061 29.392505 33.878216
726 3 0.0 15.485998 28.952493 34.463797
727 3 0.0 16.224168 28.872552 33.052104
728 3 0.0 17.005800 29.418045 34.331030
729 1 0.0 13.921372 22.796330 22.821777
730 2 0.0 13.896192 22.726417 21.193472
731 2 0.0 14.351327 21.342902 23.421431
732 2 0.0 12.439314 23.194058 23.371518
733 2 0.0 14.998656 23.921943 23.300687
734 3 0.0 14.507617 23.367896 21.562609
735 3 0.0 15.002245 21.753779 22.847770
736 3 0.0 12.844475 23.842869 22.791441
737 3 0.0 14.919563 23.814616 22.349990
738 2 0.0 14.417191 3.289631 3.186402
739 3 0.0 13.482840 3.530953 3.015662
740 3 0.0 14.980707 4.078499 3.043093
741 3 0.0 14.684949 2.588734 2.555967
742 2 0.0 12.914884 20.654663 32.249513
743 3 0.0 13.375786 21.173260 31.586017
744 3 0.0 13.227475 21.003438 33.087512
745 2 0.0 33.583328 26.228799 6.604187
746 3 0.0 33.911747 25.488489 6.088743
747 3 0.0 33.269631 26.857328 5.949860
748 2 0.0 32.836871 3.421909 16.426520
749 3 0.0 32.848178 3.434732 15.466672
750 3 0.0 33.708309 3.733502 16.681676
751 1 0.0 10.292363 19.791900 16.507854
752 2 0.0 11.179988 18.426474 16.439805
753 2 0.0 8.788868 19.437208 17.028045
754 2 0.0 10.210098 20.460998 15.023792
755 2 0.0 10.990497 20.842922 17.539777
756 3 0.0 11.521818 19.103694 17.028128
757 3 0.0 9.493406 19.213617 17.640608
758 3 0.0 11.097310 20.368996 15.378743
759 2 0.0 28.654975 33.510874 20.372461
760 3 0.0 29.488949 33.041283 20.447107
761 3 0.0 28.165704 33.027531 19.702689
762 2 0.0 35.646528 8.746281 31.849524
763 3 0.0 36.119374 9.245439 32.547848
764 3 0.0 34.835535 9.237302 31.601353
765 3 0.0 35.391274 7.868734 32.203298
766 2 0.0 16.984658 13.281043 27.307149
767 3 0.0 16.803035 13.150232 26.373607
768 3 0.0 17.867531 13.657347 27.330166
769 2 0.0 13.003680 11.880386 11.980661
770 3 0.0 13.768998 12.232873 11.480220
771 3 0.0 12.710749 12.553666 12.629726
772 3 0.0 13.282992 11.074196 12.462783
773 2 0.0 2.499871 9.770627 6.776155
774 3 0.0 2.017179 9.901174 5.956663
775 3 0.0 2.938992 10.609751 6.933138
776 2 0.0 11.018405 32.689196 3.781084
777 3 0.0 11.255633 33.376175 3.153882
778 3 0.0 10.713431 31.960325 3.235797
779 2 0.0 30.098065 16.372998 8.516138
780 3 0.0 30.977961 16.743658 8.737032
781 3 0.0 30.217918 15.487786 8.113106
782 3 0.0 29.659029 16.961272 7.866846
783 2 0.0 23.311570 25.645481 24.084400
784 3 0.0 22.487426 25.232749 24.352799
785 3 0.0 23.796750 25.769156 24.903488
786 2 0.0 3.714321 14.761741 31.061528
787 3 0.0 3.300430 15.542205 30.685802
788 3 0.0 3.768267 14.142211 30.330178
789 2 0.0 11.050496 7.985334 9.154929
790 3 0.0 11.487403 7.967857 8.300291
791 3 0.0 11.761190 8.121253 9.785832
792 1 0.0 4.412561 2.433952 23.384008
793 2 0.0 3.070451 1.753239 24.010323
794 2 0.0 4.523913 2.059429 21.801531
795 2 0.0 5.724895 1.870208 24.169421
796 2 0.0 4.330986 4.052930 23.554757
797 3 0.0 3.105043 2.710801 24.069298
798 3 0.0 3.732198 2.542495 22.049392
799 3 0.0 5.087546 2.328953 24.721635
800 2 0.0 22.954433 6.963494 16.575921
801 3 0.0 22.821329 7.934083 16.601205
802 3 0.0 23.301310 6.712904 15.694286
803 3 0.0 22.091608 6.520396 16.715915
804 2 0.0 2.258310 29.016321 14.059320
805 3 0.0 1.349426 28.707241 14.059607
806 3 0.0 2.533942 28.954226 14.976801
807 2 0.0 24.453197 13.088976 35.976035
808 3 0.0 24.258502 13.803758 36.586593
809 3 0.0 25.216655 12.648614 36.356579
810 2 0.0 8.463761 17.094996 19.382125
811 3 0.0 9.276863 17.554980 19.161039
812 3 0.0 8.361084 16.440322 18.687532
813 2 0.0 10.374918 5.174049 0.133957
814 3 0.0 11.085829 4.531452 0.191181
815 3 0.0 9.579909 4.671147 0.325399
816 2 0.0 13.465725 22.659200 26.983275
817 3 0.0 12.903735 23.437408 26.970628
818 3 0.0 14.041823 22.765961 26.222806
819 2 0.0 28.295814 30.755767 1.420656
820 3 0.0 27.909444 29.914301 1.674136
821 3 0.0 27.542726 31.336080 1.287631
822 2 0.0 8.805931 20.812575 6.279778
823 3 0.0 8.592609 21.720666 6.052921
824 3 0.0 9.684495 20.674237 5.918410
825 2 0.0 8.088474 35.570910 30.816869
826 3 0.0 8.921944 35.258158 31.176195
827 3 0.0 7.599382 34.770700 30.611803
828 2 0.0 18.202918 34.750660 8.378263
829 3 0.0 19.142838 34.704008 8.188598
830 3 0.0 17.965509 35.662742 8.195657
831 2 0.0 17.626010 15.560627 32.570920
832 3 0.0 17.815129 16.170808 31.854322
833 3 0.0 16.686374 15.667265 32.736183
834 2 0.0 24.341975 24.456050 13.011655
835 3 0.0 23.408974 24.243933 13.089860
836 3 0.0 24.401510 25.378729 13.269956
837 2 0.0 34.297225 8.882069 22.410182
838 3 0.0 33.789286 8.098373 22.187879
839 3 0.0 34.549515 8.753202 23.327429
840 2 0.0 25.687704 12.133583 19.350775
841 3 0.0 26.528284 12.279990 19.790763
842 3 0.0 25.342093 13.015128 19.192560
843 2 0.0 35.609645 24.419726 25.587870
844 3 0.0 34.890057 24.736862 26.138523
845 3 0.0 35.178486 23.907841 24.899629
846 2 0.0 5.807377 2.345523 27.286106
847 3 0.0 5.900091 3.201599 27.710533
848 3 0.0 4.862712 2.247241 27.146291
849 2 0.0 12.847313 31.770692 16.887590
850 3 0.0 13.356558 32.561458 16.695342
851 3 0.0 12.131264 31.784199 16.248301
852 2 0.0 14.388997 8.636685 21.695948
853 3 0.0 13.454148 8.609018 21.479403
854 3 0.0 14.633438 9.558963 21.589870
855 1 0.0 11.065440 25.646667 19.957892
856 2 0.0 9.477574 25.706133 19.594509
857 2 0.0 11.374725 26.646810 21.207273
858 2 0.0 11.937298 26.111176 18.661360
859 2 0.0 11.472161 24.122547 20.368424
860 3 0.0 9.803408 24.839665 19.848805
861 3 0.0 10.745768 25.946140 21.394554
862 3 0.0 11.380649 25.341660 18.521407
863 2 0.0 16.962367 24.293523 34.015168
864 3 0.0 16.145521 24.607641 33.620589
865 3 0.0 16.821763 24.380218 34.960850
866 2 0.0 12.705030 17.057792 34.800046
867 3 0.0 13.178108 17.510881 35.501834
868 3 0.0 12.681775 16.139595 35.079283
869 2 0.0 1.023460 2.378463 29.226534
870 3 0.0 0.479469 1.590267 29.160047
871 3 0.0 1.383359 2.348194 30.116004
872 2 0.0 25.598315 10.611384 34.915894
873 3 0.0 26.210928 11.373534 34.980953
874 3 0.0 24.793428 10.890737 34.431621
875 3 0.0 25.344126 10.329621 35.819441
876 2 0.0 25.549091 34.082707 18.295758
877 3 0.0 24.643453 34.106809 18.613308
878 3 0.0 25.616188 34.834406 17.702423
879 2 0.0 29.372671 27.506515 7.573609
880 3 0.0 29.382673 28.452148 7.408443
881 3 0.0 28.860784 27.140919 6.848411
882 1 0.0 18.424353 33.486728 31.124420
883 2 0.0 19.539258 32.300676 31.209087
884 2 0.0 19.084457 34.804206 30.427701
885 2 0.0 17.916624 33.863413 32.626825
886 2 0.0 17.157075 32.978618 30.234067
887 3 0.0 18.754680 32.084390 30.699913
888 3 0.0 19.083034 34.014386 29.882007
889 3 0.0 17.765097 32.952671 32.363790
890 2 0.0 27.849634 22.075687 23.387709
891 3 0.0 27.627960 22.796552 22.793727
892 3 0.0 27.029556 21.881946 23.847640
893 2 0.0 7.611187 18.852748 23.886798
894 3 0.0 8.536490 19.106929 23.915196
895 3 0.0 7.450646 18.630924 22.966679
896 2 0.0 20.481798 1.865765 19.412847
897 3 0.0 20.575865 0.903938 19.250242
898 3 0.0 19.717861 2.014418 20.008416
899 3 0.0 20.312634 2.317491 18.559777
900 2 0.0 12.557176 35.925864 19.667202
901 3 0.0 13.259075 35.818182 18.991818
902 3 0.0 12.500281 35.105550 20.200351
903 3 0.0 11.700095 36.071223 19.214784
904 2 0.0 32.371724 29.050629 23.575156
905 3 0.0 32.196336 28.895548 22.644140
906 3 0.0 32.047633 28.261709 24.015803
907 2 0.0 14.869323 21.382422 17.178195
908 3 0.0 14.217074 20.933354 16.635508
909 3 0.0 14.390891 21.632558 17.972005
910 2 0.0 33.065331 16.060634 34.735047
911 3 0.0 33.162821 16.178956 35.682726
912 3 0.0 33.150558 15.113915 34.600663
913 2 0.0 0.950665 25.820439 6.878823
914 3 0.0 1.478908 26.338650 7.490392
915 3 0.0 0.114044 25.692613 7.331950
916 2 0.0 35.763128 20.088929 13.197506
917 3 0.0 35.188729 20.878874 13.117171
918 3 0.0 36.341357 20.194566 13.981657
919 3 0.0 36.323225 20.020153 12.396281
920 2 0.0 5.060276 30.733357 25.382312
921 3 0.0 5.911438 30.543598 25.783704
922 3 0.0 5.226213 30.696732 24.437472
923 2 0.0 26.870983 21.655318 20.454666
924 3 0.0 27.608360 21.274171 19.933703
925 3 0.0 27.038840 22.611126 20.591245
926 3 0.0 26.835085 21.210831 21.327330
927 2 0.0 20.847393 24.078398 6.184850
928 3 0.0 21.643930 23.785025 6.633248
929 3 0.0 20.220933 24.246734 6.892530
930 2 0.0 30.671831 30.861567 5.957574
931 3 0.0 31.360500 31.523518 6.053267
932 3 0.0 30.940729 30.148379 6.541233
933 1 0.0 26.747503 4.985990 31.858100
934 2 0.0 26.010357 6.196913 32.662575
935 2 0.0 28.264134 4.800656 32.425889
936 2 0.0 26.802274 5.343808 30.268803
937 2 0.0 25.913249 3.602583 32.075135
938 3 0.0 25.582405 5.340810 32.737032
939 3 0.0 27.569413 4.679182 33.077201
940 3 0.0 25.919657 5.292147 30.642858
941 3 0.0 25.546119 4.371415 32.517530
942 2 0.0 25.827605 2.214924 11.937605
943 3 0.0 26.659434 2.135590 12.410221
944 3 0.0 26.060810 2.641647 11.109883
945 2 0.0 0.949995 21.121444 24.009323
946 3 0.0 0.017566 21.160700 24.234346
947 3 0.0 0.988666 21.405600 23.093157
948 2 0.0 8.141685 31.389811 20.871476
949 3 0.0 7.356573 31.929820 20.754900
950 3 0.0 7.806733 30.536459 21.156427
951 2 0.0 34.413562 5.038276 23.182397
952 3 0.0 34.935827 5.120802 23.983664
953 3 0.0 34.661696 5.800266 22.653813
954 1 0.0 14.315857 7.916132 33.241594
955 2 0.0 15.878164 8.048337 33.687263
956 2 0.0 13.601552 9.378937 33.324482
957 2 0.0 13.551308 6.880688 34.241705
958 2 0.0 14.232406 7.356566 31.712928
959 3 0.0 15.736889 7.723579 32.794977
960 3 0.0 14.347001 9.325003 32.721991
961 3 0.0 14.290300 6.505647 33.757107
962 3 0.0 15.121936 7.465093 32.057249
963 2 0.0 27.977747 25.113302 32.318056
964 3 0.0 27.593760 24.917942 31.460158
965 3 0.0 27.463137 24.590020 32.936887
966 2 0.0 36.763761 14.495182 23.111201
967 3 0.0 37.099585 14.961878 23.879977
968 3 0.0 36.518342 15.190087 22.495997
969 2 0.0 6.031712 21.051209 3.652366
970 3 0.0 6.831506 21.494089 3.359469
971 3 0.0 6.006408 20.238090 3.142664
972 1 0.0 27.236496 2.229064 7.811895
973 2 0.0 27.192360 1.470481 6.369846
974 2 0.0 28.630930 3.062590 7.944893
975 2 0.0 27.146363 1.126344 9.008884
976 2 0.0 25.976331 3.256841 7.923955
977 3 0.0 26.481567 2.098018 6.520081
978 3 0.0 28.071724 3.322132 7.209008
979 3 0.0 26.396341 1.137014 8.409757
980 2 0.0 25.756124 28.226996 10.610924
981 3 0.0 26.148845 27.737714 11.337542
982 3 0.0 26.041156 27.758159 9.823175
983 2 0.0 20.510331 33.677740 6.118075
984 3 0.0 19.771939 33.834142 5.524851
985 3 0.0 20.123933 33.707492 6.996375
986 2 0.0 12.263148 19.258361 9.588637
987 3 0.0 12.516008 19.511192 10.479556
988 3 0.0 12.034400 18.328600 9.658062
989 2 0.0 33.692570 10.542997 24.120876
990 3 0.0 33.403850 11.356420 23.700656
991 3 0.0 32.925456 9.967063 24.082955
992 2 0.0 22.910474 10.128572 20.276941
993 3 0.0 22.538025 11.010734 20.345289
994 3 0.0 22.442966 9.726260 19.541291
995 2 0.0 26.575194 30.701625 20.301248
996 3 0.0 26.718965 31.026745 19.409493
997 3 0.0 26.620184 29.746190 20.219274
998 1 0.0 2.446283 13.975595 2.303379
999 2 0.0 3.853814 14.153214 3.106006
1000 2 0.0 1.580777 12.773566 2.983767
1001 2 0.0 2.752070 13.609902 0.744642
1002 2 0.0 1.598472 15.365696 2.379103
1003 3 0.0 3.289108 14.929538 3.100571
1004 3 0.0 1.786419 13.506640 3.568501
1005 3 0.0 3.108262 14.450472 1.041575
1006 1 0.0 31.362663 17.307122 4.993523
1007 2 0.0 31.968913 16.644399 3.633317
1008 2 0.0 32.320642 16.927602 6.256512
1009 2 0.0 29.861568 16.729116 5.257198
1010 2 0.0 31.299528 18.927371 4.827064
1011 3 0.0 31.896682 17.601598 3.620941
1012 3 0.0 32.751261 17.420930 5.554519
1013 3 0.0 29.976116 17.196932 4.426760
1014 2 0.0 13.018261 9.036015 6.962464
1015 3 0.0 13.205247 8.141347 6.668857
1016 3 0.0 13.835423 9.515670 6.808267
1017 2 0.0 27.127353 21.807199 13.145132
1018 3 0.0 28.054590 21.617923 12.983867
1019 3 0.0 26.783091 22.071134 12.288731
1020 2 0.0 9.123654 22.147953 21.070186
1021 3 0.0 8.706754 21.360058 20.713794
1022 3 0.0 8.628943 22.876161 20.687335
1023 2 0.0 27.829077 18.822282 26.755535
1024 3 0.0 28.617528 18.399549 26.407339
1025 3 0.0 27.972257 18.854485 27.704251
1026 2 0.0 21.955442 1.126218 26.939312
1027 3 0.0 22.837149 1.500380 26.874543
1028 3 0.0 21.801527 1.034634 27.882457
1029 2 0.0 21.048650 28.315375 10.097655
1030 3 0.0 20.560957 27.519454 10.321855
1031 3 0.0 20.873907 28.449553 9.163278
1032 2 0.0 17.042238 23.164185 0.993569
1033 3 0.0 16.107295 23.141364 1.210275
1034 3 0.0 17.066882 23.361816 0.054456
1035 1 0.0 20.611219 34.806569 17.151104
1036 2 0.0 19.264633 33.925499 17.410570
1037 2 0.0 21.501001 34.853797 18.516006
1038 2 0.0 20.194177 36.322666 16.721653
1039 2 0.0 21.485063 34.124315 15.956188
1040 3 0.0 19.840410 33.592265 16.718446
1041 3 0.0 21.347722 33.974783 18.161831
1042 3 0.0 19.872929 35.632450 16.136844
1043 2 0.0 10.693702 1.092959 3.161094
1044 3 0.0 9.976652 0.499416 3.395926
1045 3 0.0 10.795506 1.662386 3.927245
1046 2 0.0 11.281594 26.237721 31.557784
1047 3 0.0 11.215087 25.947817 30.645023
1048 3 0.0 11.118993 27.183191 31.522486
1049 2 0.0 0.151391 5.657877 20.313081
1050 3 0.0 0.083203 6.295384 21.027598
1051 3 0.0 0.792682 6.040312 19.709683
1052 1 0.0 26.856775 3.396193 15.420303
1053 2 0.0 25.753080 3.704953 16.579364
1054 2 0.0 27.930964 2.300803 15.970883
1055 2 0.0 27.636405 4.773868 15.031600
1056 2 0.0 26.106651 2.805149 14.099363
1057 3 0.0 25.394820 3.351747 15.761748
1058 3 0.0 27.019483 2.000192 15.950002
1059 3 0.0 26.687064 4.791127 14.889991
1060 1 0.0 33.329469 6.985573 2.790053
1061 2 0.0 32.173172 8.097294 3.079803
1062 2 0.0 32.905118 6.083730 1.500283
1063 2 0.0 33.496810 6.022944 4.094753
1064 2 0.0 34.742775 7.738325 2.485372
1065 3 0.0 33.042915 8.456558 2.889867
1066 3 0.0 32.996082 7.023394 1.326052
1067 3 0.0 33.663826 6.954796 4.253997
1068 2 0.0 2.772907 21.931669 15.069235
1069 3 0.0 2.841662 21.252728 15.744446
1070 3 0.0 3.143101 21.526276 14.281699
1071 2 0.0 20.047650 6.593691 27.468598
1072 3 0.0 20.715294 7.281909 27.421598
1073 3 0.0 20.435668 5.849685 27.002232
1074 2 0.0 27.923186 14.583652 22.430497
1075 3 0.0 27.906734 15.099022 23.240264
1076 3 0.0 28.829182 14.273990 22.360642
1077 2 0.0 0.995585 9.173288 26.203276
1078 3 0.0 0.343825 9.129753 26.906777
1079 3 0.0 0.742490 8.473280 25.597032
1080 1 0.0 17.403756 29.141305 7.241107
1081 2 0.0 17.244666 29.142239 5.618890
1082 2 0.0 16.285748 30.129447 7.897258
1083 2 0.0 18.894300 29.665828 7.641173
1084 2 0.0 17.190308 27.627706 7.807108
1085 3 0.0 17.133397 28.285251 6.036968
1086 3 0.0 15.931134 29.400053 7.383612
1087 3 0.0 18.874970 28.876843 7.094612
1088 2 0.0 8.299896 28.860507 16.169243
1089 3 0.0 9.211174 28.647617 15.955115
1090 3 0.0 8.006545 29.418439 15.445187
1091 2 0.0 34.790003 14.361919 15.432771
1092 3 0.0 34.988298 13.860397 14.638570
1093 3 0.0 35.630809 14.429193 15.891157
1094 1 0.0 15.512807 34.087983 13.815267
1095 2 0.0 16.042097 35.323964 14.736734
1096 2 0.0 13.899273 34.209131 13.618469
1097 2 0.0 15.866384 32.674807 14.546580
1098 2 0.0 16.243475 34.144028 12.359285
1099 3 0.0 16.423913 35.281306 13.856963
1100 3 0.0 14.405212 34.956191 13.290556
1101 3 0.0 16.625162 33.224656 14.337959
1102 2 0.0 28.851551 21.077924 33.092411
1103 3 0.0 29.004548 21.423165 33.975021
1104 3 0.0 29.723658 20.831162 32.775965
1105 2 0.0 29.995697 5.390932 33.522587
1106 3 0.0 30.884925 5.750302 33.564158
1107 3 0.0 29.684553 5.619539 32.643652
1108 2 0.0 20.198745 16.073299 18.793507
1109 3 0.0 19.723334 16.049221 19.627176
1110 3 0.0 21.101209 15.841131 19.024281
1111 1 0.0 13.225120 11.332279 23.930328
1112 2 0.0 12.018420 10.238292 23.867329
1113 2 0.0 12.829168 12.518358 24.975957
1114 2 0.0 13.458384 11.969864 22.448446
1115 2 0.0 14.594506 10.602602 24.429579
1116 3 0.0 12.866331 9.891024 24.153775
1117 3 0.0 12.870382 11.638331 25.357341
1118 3 0.0 13.580472 11.019337 22.504963
1119 2 0.0 32.220411 14.623047 17.411986
1120 3 0.0 33.054785 14.148359 17.421539
1121 3 0.0 31.952170 14.619766 16.490229
1122 1 0.0 4.425376 28.378964 29.446560
1123 2 0.0 4.140318 28.689095 31.021190
1124 2 0.0 5.618621 27.276072 29.317355
1125 2 0.0 4.872680 29.754055 28.694267
1126 2 0.0 3.069883 27.796636 28.753427
1127 3 0.0 3.390055 28.340741 30.534000
1128 3 0.0 4.843186 26.980207 29.799812
1129 3 0.0 4.001367 29.776693 29.096637
1130 3 0.0 2.990077 28.007265 29.686629
1131 2 0.0 20.166329 37.197516 10.075783
1132 3 0.0 20.053454 36.224297 10.098265
1133 3 0.0 19.918301 0.111229 10.949039
1134 3 0.0 19.571740 0.115457 9.392105
1135 1 0.0 25.471000 12.018959 2.444870
1136 2 0.0 23.911062 12.321651 2.808009
1137 2 0.0 26.183363 11.259676 3.699035
1138 2 0.0 26.242979 13.424149 2.150948
1139 2 0.0 25.546597 11.070359 1.121486
1140 3 0.0 24.047748 11.766378 2.036913
1141 3 0.0 25.434557 10.796399 3.316589
1142 3 0.0 25.501836 13.239078 1.569523
1143 3 0.0 24.658880 11.298822 1.406728
1144 2 0.0 21.479149 24.988117 15.114486
1145 3 0.0 22.230487 25.090483 15.735302
1146 3 0.0 20.662360 25.313616 15.547275
1147 3 0.0 21.369403 24.037755 14.901959
1148 2 0.0 0.831105 19.317241 11.138037
1149 3 0.0 0.296147 19.237928 10.344860
1150 3 0.0 0.649518 18.514415 11.632098
1151 2 0.0 20.219365 0.879401 32.625069
1152 3 0.0 19.844360 1.668463 32.181050
1153 3 0.0 21.132361 1.082809 32.917410
1154 3 0.0 20.248143 0.137882 31.984975
1155 2 0.0 0.677237 4.659899 11.311326
1156 3 0.0 1.577131 4.902327 11.081068
1157 3 0.0 0.712992 3.711550 11.456084
1158 2 0.0 14.422704 28.354890 6.020412
1159 3 0.0 13.759096 27.707356 6.269256
1160 3 0.0 13.945621 28.996417 5.488965
1161 2 0.0 30.503224 36.912733 0.264126
1162 3 0.0 31.330450 36.489129 0.575022
1163 3 0.0 29.765897 36.273190 0.352069
1164 3 0.0 30.604630 37.153284 36.775020
1165 2 0.0 10.037393 11.925286 11.546673
1166 3 0.0 9.169059 12.332923 11.508867
1167 3 0.0 10.462202 12.333656 12.304546
1168 1 0.0 28.274432 19.076149 17.245995
1169 2 0.0 27.984489 18.274243 18.635160
1170 2 0.0 29.640533 18.505417 16.564136
1171 2 0.0 28.448103 20.665706 17.562298
1172 2 0.0 27.024603 18.859231 16.222386
1173 3 0.0 27.294342 18.199697 17.972030
1174 3 0.0 28.944372 17.855246 16.683456
1175 3 0.0 27.598675 20.293203 17.809915
1176 2 0.0 11.500446 1.837587 22.277756
1177 3 0.0 11.613305 1.492869 21.388919
1178 3 0.0 12.307531 2.328049 22.449979
1179 2 0.0 14.059440 28.069271 30.703720
1180 3 0.0 13.447722 28.653345 31.157877
1181 3 0.0 14.753112 27.901007 31.345674
1182 2 0.0 26.823077 37.386179 32.649316
1183 3 0.0 26.512758 0.088938 33.565318
1184 3 0.0 26.973571 0.794128 32.210873
1185 3 0.0 26.129979 36.896912 32.158772
1186 2 0.0 9.569093 6.022066 16.701201
1187 3 0.0 10.093058 5.218585 16.662738
1188 3 0.0 9.293852 6.086233 17.618657
1189 1 0.0 1.591094 18.485771 6.849489
1190 2 0.0 2.956548 18.355881 5.968827
1191 2 0.0 1.699448 17.528501 8.164325
1192 2 0.0 0.315547 18.024776 5.945408
1193 2 0.0 1.392834 20.033925 7.319395
1194 3 0.0 2.762121 19.240194 6.287870
1195 3 0.0 2.374188 18.208418 8.100774
1196 3 0.0 0.812410 18.768481 5.596652
1197 2 0.0 23.553925 14.129106 28.044807
1198 3 0.0 23.602708 14.106717 29.003305
1199 3 0.0 23.593373 15.062424 27.823534
1200 2 0.0 35.414782 11.389242 4.219953
1201 3 0.0 35.120429 10.507424 4.459439
1202 3 0.0 35.655795 11.797525 5.054710
1203 2 0.0 19.299043 8.542282 25.550213
1204 3 0.0 19.323904 9.501208 25.588212
1205 3 0.0 20.135171 8.264538 25.931459
1206 2 0.0 33.174372 29.773952 12.744051
1207 3 0.0 32.400213 29.231109 12.910185
1208 3 0.0 32.972046 30.238619 11.928729
1209 2 0.0 37.406851 5.305386 36.565900
1210 3 0.0 37.364991 5.815384 37.378150
1211 3 0.0 37.372011 5.962585 35.866990
1212 2 0.0 15.469154 0.854016 27.729621
1213 3 0.0 15.906220 1.674594 27.490404
1214 3 0.0 15.108428 0.523746 26.903547
1215 2 0.0 2.279466 34.464126 26.368675
1216 3 0.0 1.975441 35.374710 26.366369
1217 3 0.0 1.728564 34.024789 25.716685
1218 2 0.0 1.306260 26.575571 24.841746
1219 3 0.0 1.351454 26.184556 23.966152
1220 3 0.0 2.221676 26.642234 25.123117
1221 2 0.0 34.086238 3.044930 7.001675
1222 3 0.0 33.944682 3.719223 7.670175
1223 3 0.0 33.909997 2.216752 7.454068
1224 2 0.0 4.880116 33.349440 33.032218
1225 3 0.0 5.424063 33.945247 33.552541
1226 3 0.0 5.484493 32.971337 32.389282
1227 2 0.0 2.466110 25.290705 21.851862
1228 3 0.0 2.901230 25.666860 21.083242
1229 3 0.0 2.758264 25.836996 22.585220
1230 2 0.0 4.453385 34.739352 8.753090
1231 3 0.0 4.264718 33.813586 8.923273
1232 3 0.0 4.415661 35.155510 9.617375
1233 2 0.0 1.675173 11.410811 30.890772
1234 3 0.0 2.142593 11.356389 30.054019
1235 3 0.0 1.799700 12.318509 31.177439
1236 1 0.0 7.014521 26.129639 17.538422
1237 2 0.0 5.644518 25.615700 16.820189
1238 2 0.0 7.484635 25.039203 18.655041
1239 2 0.0 6.743452 27.565206 18.261312
1240 2 0.0 8.185477 26.298449 16.417144
1241 3 0.0 6.389916 25.742204 16.228598
1242 3 0.0 7.432369 24.703649 17.757115
1243 3 0.0 6.595920 27.554326 17.312779
1244 2 0.0 18.033581 18.702707 16.382794
1245 3 0.0 17.146202 19.046672 16.256915
1246 3 0.0 18.524217 19.017591 15.620085
1247 2 0.0 33.082632 33.684895 10.603425
1248 3 0.0 33.965884 33.623207 10.974452
1249 3 0.0 33.224315 33.773073 9.658041
1250 2 0.0 5.068766 30.730762 7.800956
1251 3 0.0 5.826054 30.443585 8.316363
1252 3 0.0 4.312740 30.341805 8.246756
1253 1 0.0 5.740625 24.535268 3.320785
1254 2 0.0 5.278984 23.144114 4.033861
1255 2 0.0 7.170503 25.014489 3.939410
1256 2 0.0 4.617707 25.684690 3.594254
1257 2 0.0 5.895306 24.297780 1.715614
1258 3 0.0 5.394341 23.093386 3.082168
1259 3 0.0 7.180502 24.154020 3.513860
1260 3 0.0 4.299588 24.910364 3.124340
1261 2 0.0 37.296821 9.553819 15.570809
1262 3 0.0 37.141528 10.024289 16.393088
1263 3 0.0 0.583032 10.011335 15.168112
1264 2 0.0 2.308667 12.655325 25.993832
1265 3 0.0 2.575370 13.149894 25.215454
1266 3 0.0 1.375100 12.853863 26.096954
1267 2 0.0 3.548450 5.585899 8.664047
1268 3 0.0 3.936424 5.102391 7.931042
1269 3 0.0 2.880936 6.143716 8.258012
1270 2 0.0 14.332794 37.173351 13.002089
1271 3 0.0 13.808789 36.444310 13.394922
1272 3 0.0 13.758843 0.231354 12.396028
1273 3 0.0 15.075210 36.790935 12.489277
1274 2 0.0 36.361821 18.431319 33.349368
1275 3 0.0 36.097273 17.508750 33.371274
1276 3 0.0 37.108587 18.453323 32.746494
1277 2 0.0 23.315475 23.481525 31.393435
1278 3 0.0 24.176183 23.059716 31.339972
1279 3 0.0 23.448797 24.226499 31.984061
1280 1 0.0 22.474578 30.777709 2.068984
1281 2 0.0 22.171069 32.370283 2.237773
1282 2 0.0 23.542557 30.304646 3.205879
1283 2 0.0 23.096740 30.497059 0.588764
1284 2 0.0 21.087945 29.938849 2.243519
1285 3 0.0 21.404286 31.799508 2.326428
1286 3 0.0 22.722945 30.670561 3.546383
1287 3 0.0 22.219825 30.887705 0.592882
1288 3 0.0 20.999567 30.890980 2.328575
1289 2 0.0 32.009569 25.024719 10.480416
1290 3 0.0 32.902633 25.299906 10.260624
1291 3 0.0 32.108766 24.130417 10.815055
1292 1 0.0 11.165793 8.637954 17.318892
1293 2 0.0 11.927830 9.666535 18.327962
1294 2 0.0 9.649290 8.374322 17.855191
1295 2 0.0 11.977447 7.225314 17.268221
1296 2 0.0 11.108605 9.285645 15.824192
1297 3 0.0 11.849589 9.971322 17.420998
1298 3 0.0 9.853424 9.289467 17.649182
1299 3 0.0 12.480825 7.992774 16.986767
1300 2 0.0 32.051033 1.438623 27.342698
1301 3 0.0 32.461511 1.478090 26.475778
1302 3 0.0 31.654079 2.304707 27.460706
1303 2 0.0 11.070001 34.664307 33.855287
1304 3 0.0 10.342262 34.038440 33.838347
1305 3 0.0 11.456203 34.608170 32.978191
1306 2 0.0 36.122871 31.005482 11.266381
1307 3 0.0 36.940551 30.790860 11.721283
1308 3 0.0 36.375529 31.089785 10.344070
1309 2 0.0 18.073598 15.861213 22.177762
1310 3 0.0 17.298886 15.839762 22.777563
1311 3 0.0 18.410361 16.780074 22.125950
1312 3 0.0 17.791790 15.574888 21.283893
1313 2 0.0 10.451091 33.746815 5.387601
1314 3 0.0 10.074682 34.145330 4.599500
1315 3 0.0 10.071548 34.246002 6.114485
1316 2 0.0 4.815089 1.722771 12.207027
1317 3 0.0 5.119186 1.528919 11.295794
1318 3 0.0 3.855842 1.922330 12.186497
1319 3 0.0 5.296158 2.507859 12.542598
1320 1 0.0 24.591584 18.269611 1.912658
1321 2 0.0 25.461402 16.896628 1.789237
1322 2 0.0 25.405979 19.493834 1.209138
1323 2 0.0 24.342952 18.615712 3.485965
1324 2 0.0 23.156003 18.072272 1.166291
1325 3 0.0 24.596290 16.867537 1.374106
1326 3 0.0 25.190345 18.762140 0.626278
1327 3 0.0 23.990685 17.771150 3.195752
1328 3 0.0 23.734856 17.306827 1.141336
1329 2 0.0 25.421999 29.856902 11.036781
1330 3 0.0 24.606045 30.308245 11.265057
1331 3 0.0 26.085066 30.550973 11.022354
1332 2 0.0 24.318883 19.563601 7.525253
1333 3 0.0 23.393512 19.297249 7.707314
1334 3 0.0 24.501058 19.447483 6.569362
1335 3 0.0 24.922725 18.985441 8.036631
1336 2 0.0 18.052962 7.418102 12.499767
1337 3 0.0 18.659608 7.211190 11.785086
1338 3 0.0 17.395760 6.719067 12.467601
1339 1 0.0 21.270422 2.213787 15.834634
1340 2 0.0 22.680786 1.892803 16.586127
1341 2 0.0 20.075917 1.348397 16.528290
1342 2 0.0 21.389721 1.810264 14.259884
1343 2 0.0 20.935263 3.803684 15.964235
1344 3 0.0 22.406151 2.812250 16.614273
1345 3 0.0 20.531117 1.955568 17.116284
1346 3 0.0 22.013788 2.476800 14.556313
1347 1 0.0 3.582602 17.097340 18.207526
1348 2 0.0 2.171565 17.769816 17.745303
1349 2 0.0 3.296972 15.957453 19.337116
1350 2 0.0 4.554591 18.248033 18.830457
1351 2 0.0 4.307281 16.414059 16.917229
1352 3 0.0 2.666770 17.342499 17.042613
1353 3 0.0 2.871673 15.804822 18.490106
1354 3 0.0 4.290938 18.389817 17.918325
1355 2 0.0 36.782758 16.972087 27.249052
1356 3 0.0 36.609179 16.274187 27.884981
1357 3 0.0 37.429687 17.535215 27.680294
1358 2 0.0 19.682175 11.031999 0.730994
1359 3 0.0 19.599507 10.201552 0.256522
1360 3 0.0 20.335102 11.529589 0.233310
1361 2 0.0 34.272292 3.750687 13.853541
1362 3 0.0 34.937007 3.676722 13.164859
1363 3 0.0 34.057088 2.842658 14.078863
1364 2 0.0 8.203248 9.193640 31.188502
1365 3 0.0 7.530850 8.523105 31.047560
1366 3 0.0 8.949387 8.901106 30.660014
1367 2 0.0 13.530767 21.058195 29.398829
1368 3 0.0 14.346544 21.444906 29.017564
1369 3 0.0 13.109917 21.719694 29.986796
1370 3 0.0 13.770204 20.268922 29.928090
1371 2 0.0 32.821427 0.280467 34.072545
1372 3 0.0 32.716976 36.786168 34.165286
1373 3 0.0 31.954877 0.639075 34.277706
1374 2 0.0 17.610045 9.396661 30.533485
1375 3 0.0 17.862929 8.523196 30.841230
1376 3 0.0 18.437151 9.809320 30.274240
1377 1 0.0 15.573834 23.837460 4.714148
1378 2 0.0 15.389224 22.242274 4.993793
1379 2 0.0 16.446389 24.053297 3.354383
1380 2 0.0 16.350232 24.523405 5.972554
1381 2 0.0 14.109489 24.530864 4.535862
1382 3 0.0 14.571289 22.730856 4.876025
1383 3 0.0 15.624977 23.570490 3.236994
1384 3 0.0 15.516461 24.101023 6.191686
1385 2 0.0 4.243918 11.761938 16.854496
1386 3 0.0 4.826031 11.265384 16.274687
1387 3 0.0 4.103197 11.183180 17.607382
1388 2 0.0 34.178837 27.016895 3.226265
1389 3 0.0 33.397507 27.041984 3.783486
1390 3 0.0 34.167776 26.140064 2.835568
1391 2 0.0 24.490341 5.063560 10.779138
1392 3 0.0 25.169674 5.572611 10.330836
1393 3 0.0 23.802543 5.702969 10.978356
1394 2 0.0 11.918519 33.565898 28.200513
1395 3 0.0 12.733603 34.049010 28.354918
1396 3 0.0 12.009332 33.219020 27.309991
1397 2 0.0 37.053445 21.362285 12.771987
1398 3 0.0 37.377133 22.179018 13.158993
1399 3 0.0 0.314247 21.063146 12.207143
1400 2 0.0 30.260171 32.782934 16.137512
1401 3 0.0 29.823774 33.579619 16.448077
1402 3 0.0 30.470998 32.966407 15.219095
1403 2 0.0 33.006609 18.117725 27.069031
1404 3 0.0 33.337974 18.018698 26.152085
1405 3 0.0 33.326970 18.969483 27.432729
1406 3 0.0 33.360194 17.385331 27.615818
1407 2 0.0 3.406531 5.158465 35.255957
1408 3 0.0 3.577197 5.476802 34.366500
1409 3 0.0 2.812748 4.413842 35.135301
1410 2 0.0 28.690378 25.281994 5.506338
1411 3 0.0 29.054613 25.222343 4.620124
1412 3 0.0 29.184942 25.991759 5.922559
1413 1 0.0 14.608606 1.373515 18.166607
1414 2 0.0 13.962934 2.860725 17.998630
1415 2 0.0 16.216038 1.502698 18.404034
1416 2 0.0 14.326860 0.503310 16.817436
1417 2 0.0 13.928590 0.627328 19.446327
1418 3 0.0 13.616800 2.348758 18.733260
1419 3 0.0 15.672102 1.938836 19.063971
1420 3 0.0 13.540101 0.810993 17.273443
1421 2 0.0 4.683489 15.078108 20.836838
1422 3 0.0 4.040958 15.781281 20.717246
1423 3 0.0 4.831379 14.734294 19.952801
1424 2 0.0 12.507845 27.297359 25.474796
1425 3 0.0 12.531790 27.346379 26.433244
1426 3 0.0 13.394529 27.541048 25.199101
1427 2 0.0 13.553174 23.013241 1.419478
1428 3 0.0 13.107124 22.954096 0.571456
1429 3 0.0 13.786609 22.106722 1.632389
1430 1 0.0 30.924896 9.875144 20.130384
1431 2 0.0 29.322958 9.583790 20.054190
1432 2 0.0 31.230984 11.376979 19.575675
1433 2 0.0 31.719486 8.785390 19.214980
1434 2 0.0 31.426157 9.754416 21.676690
1435 3 0.0 29.703163 9.532975 20.934225
1436 3 0.0 30.647172 11.336712 20.336689
1437 3 0.0 31.198463 8.412019 19.929633
1438 2 0.0 1.778507 10.476396 2.264820
1439 3 0.0 1.657492 10.280813 3.196862
1440 3 0.0 1.527928 11.399039 2.177987
1441 2 0.0 0.440560 14.424626 6.383160
1442 3 0.0 37.237430 14.312497 5.693774
1443 3 0.0 1.043656 13.687603 6.262031
1444 2 0.0 20.533552 18.374728 13.987436
1445 3 0.0 19.595512 18.570766 14.192500
1446 3 0.0 20.600023 18.077115 13.056088
1447 3 0.0 20.843527 17.653894 14.574559
1448 2 0.0 28.752212 29.013043 37.238144
1449 3 0.0 27.802092 28.882992 37.193894
1450 3 0.0 29.121282 28.242163 36.800957
1451 2 0.0 32.862774 9.721180 9.187583
1452 3 0.0 32.739226 9.869159 8.247137
1453 3 0.0 32.040937 9.318836 9.477934
1454 2 0.0 6.053340 0.014897 24.949531
1455 3 0.0 6.714723 0.539586 24.492504
1456 3 0.0 6.500607 36.646560 25.156578
1457 2 0.0 27.293744 5.469743 10.769428
1458 3 0.0 27.047729 5.922384 9.959370
1459 3 0.0 27.043321 6.076633 11.469838
1460 2 0.0 15.878648 15.607264 17.337988
1461 3 0.0 15.806596 16.301127 16.678472
1462 3 0.0 15.260899 14.932817 17.046257
1463 1 0.0 22.625108 22.164205 26.114858
1464 2 0.0 22.044529 21.867152 24.621008
1465 2 0.0 21.980219 23.549236 26.682930
1466 2 0.0 24.247469 22.307285 26.048735
1467 2 0.0 22.228214 20.933145 27.106759
1468 3 0.0 21.854768 21.188059 25.272486
1469 3 0.0 21.343929 22.862109 26.471765
1470 3 0.0 23.902595 21.460527 25.756055
1471 1 0.0 3.237652 33.182993 21.721444
1472 2 0.0 2.940610 31.584668 21.839872
1473 2 0.0 4.561166 33.422906 20.800764
1474 2 0.0 3.491158 33.800174 23.208630
1475 2 0.0 1.957674 33.924222 21.036511
1476 3 0.0 2.233821 32.100516 21.444966
1477 3 0.0 3.838442 32.968494 20.361696
1478 3 0.0 2.630904 33.394253 23.079052
1479 2 0.0 2.112979 27.085652 10.383495
1480 3 0.0 1.175147 27.150408 10.578116
1481 3 0.0 2.516098 27.782038 10.907079
1482 2 0.0 6.030986 31.682046 16.680913
1483 3 0.0 5.764084 32.005435 17.544500
1484 3 0.0 6.413186 30.818738 16.854760
1485 2 0.0 32.847919 16.717964 16.053283
1486 3 0.0 32.376721 16.002153 15.577901
1487 3 0.0 32.701538 16.610206 17.016279
1488 3 0.0 32.481912 17.582007 15.770674
1489 1 0.0 4.569480 19.917596 0.711320
1490 2 0.0 3.734467 20.464978 36.878384
1491 2 0.0 3.674373 18.814032 1.509963
1492 2 0.0 4.911369 21.162741 1.706120
1493 2 0.0 5.957710 19.228634 0.206297
1494 3 0.0 4.570677 20.041974 36.670007
1495 3 0.0 3.872530 18.592031 0.597247
1496 3 0.0 5.268520 21.242626 0.818617
1497 2 0.0 24.217106 14.223787 30.982580
1498 3 0.0 24.420175 13.291855 30.873657
1499 3 0.0 23.710919 14.266218 31.797181
1500 2 0.0 2.479802 37.054333 7.975798
1501 3 0.0 1.632474 37.219027 7.555665
1502 3 0.0 2.644558 36.120300 7.827345
1503 2 0.0 22.579502 25.159485 35.289794
1504 3 0.0 22.918716 24.471904 34.712069
1505 3 0.0 23.352183 25.677496 35.526916
1506 2 0.0 34.625159 9.681091 10.742355
1507 3 0.0 34.421607 9.025485 11.413434
1508 3 0.0 35.448554 10.078087 11.035637
1509 2 0.0 33.957255 26.157411 14.356132
1510 3 0.0 33.334808 26.724333 14.817389
1511 3 0.0 33.408877 25.604590 13.794642
1512 2 0.0 30.159220 1.368560 14.512449
1513 3 0.0 29.810230 2.253493 14.641672
1514 3 0.0 29.745771 1.062779 13.701796
1515 2 0.0 6.927422 2.604891 5.188649
1516 3 0.0 7.552024 2.789586 4.483411
1517 3 0.0 7.214678 1.763284 5.550287
1518 2 0.0 2.989281 0.932424 10.062803
1519 3 0.0 2.735552 0.932107 9.136940
1520 3 0.0 3.876764 1.298396 10.069031
1521 2 0.0 21.635074 27.866329 33.351941
1522 3 0.0 22.118433 28.687587 33.235758
1523 3 0.0 22.316796 27.198346 33.455157
1524 2 0.0 37.392104 34.597855 10.492474
1525 3 0.0 37.254788 34.377007 9.568369
1526 3 0.0 0.416229 33.847316 10.850614
1527 2 0.0 30.559188 31.752907 26.346348
1528 3 0.0 31.087010 31.974909 27.116880
1529 3 0.0 31.137438 31.208256 25.807290
1530 2 0.0 1.688960 34.593264 1.204789
1531 3 0.0 1.891091 34.491930 2.158348
1532 3 0.0 1.433930 35.523370 1.030829
1533 3 0.0 0.936440 34.008910 0.975345
1534 2 0.0 3.619655 7.447135 20.488691
1535 3 0.0 4.125339 6.631374 20.509136
1536 3 0.0 4.261345 8.133125 20.686813
1537 1 0.0 1.743494 16.460221 25.282482
1538 2 0.0 2.841978 17.619171 25.609694
1539 2 0.0 0.518664 16.554498 26.353837
1540 2 0.0 2.449970 14.995398 25.392416
1541 2 0.0 1.163365 16.671817 23.773980
1542 3 0.0 2.447422 17.669215 24.735954
1543 3 0.0 0.654702 17.342558 25.822748
1544 3 0.0 2.834244 15.583062 24.737753
1545 2 0.0 0.824444 19.859990 18.519803
1546 3 0.0 0.526169 20.005597 19.441883
1547 3 0.0 1.374224 19.049369 18.487632
1548 3 0.0 1.368325 20.624584 18.236979
1549 2 0.0 27.873086 9.723799 21.959267
1550 3 0.0 27.409927 10.529707 22.199258
1551 3 0.0 28.766566 9.853396 22.285608
1552 2 0.0 15.638517 9.755607 11.772389
1553 3 0.0 15.112917 10.479066 12.173327
1554 3 0.0 15.330497 9.610263 10.853477
1555 3 0.0 15.496251 8.935100 12.289042
1556 2 0.0 25.116845 36.478019 8.940984
1557 3 0.0 25.252015 35.588630 8.605849
1558 3 0.0 25.978244 36.895710 8.869393
1559 2 0.0 15.734403 13.824719 35.430172
1560 3 0.0 16.625269 14.168272 35.529817
1561 3 0.0 15.199473 14.596804 35.231842
1562 2 0.0 25.800083 9.114601 25.932194
1563 3 0.0 26.301177 9.114557 26.751038
1564 3 0.0 24.882331 9.149879 26.211636
1565 2 0.0 34.161261 17.639748 18.985613
1566 3 0.0 34.048284 17.887854 18.065135
1567 3 0.0 35.032306 17.237752 19.021373
1568 1 0.0 11.359423 16.114673 28.763399
1569 2 0.0 12.279904 15.037963 27.956981
1570 2 0.0 12.157928 17.530696 28.882440
1571 2 0.0 11.038530 15.544677 30.256393
1572 2 0.0 9.961329 16.345357 27.957781
1573 3 0.0 11.432966 15.233368 27.549411
1574 3 0.0 11.990159 17.233719 27.985078
1575 3 0.0 10.726882 14.992432 29.535630
1576 2 0.0 5.129630 5.130023 15.766362
1577 3 0.0 4.953999 4.218116 16.079377
1578 3 0.0 5.116750 5.137948 14.786479
1579 3 0.0 6.017646 5.406728 16.075008
1580 2 0.0 10.467265 30.371224 18.664010
1581 3 0.0 10.261706 29.469438 18.921161
1582 3 0.0 11.381082 30.335872 18.371968
1583 2 0.0 32.864345 24.099309 2.482963
1584 3 0.0 32.892257 23.185778 2.189225
1585 3 0.0 33.665808 24.210624 2.999554
1586 2 0.0 28.709206 19.499858 2.475406
1587 3 0.0 29.398563 19.111442 3.019024
1588 3 0.0 28.364398 20.223022 3.004313
1589 2 0.0 36.185779 33.062598 11.984769
1590 3 0.0 35.711108 32.520729 12.619328
1591 3 0.0 36.029004 33.964593 12.273607
1592 2 0.0 16.517232 11.837744 33.406557
1593 3 0.0 16.322435 12.739154 33.139884
1594 3 0.0 15.826688 11.618512 34.036388
1595 2 0.0 10.959475 31.167174 31.463331
1596 3 0.0 11.505561 31.642057 30.832557
1597 3 0.0 10.085957 31.156371 31.065274
1598 2 0.0 21.743882 26.960371 4.374707
1599 3 0.0 21.327441 26.900593 3.511803
1600 3 0.0 22.253621 26.150616 4.452573
1601 2 0.0 7.882527 24.780902 27.530514
1602 3 0.0 7.348255 25.367176 26.989740
1603 3 0.0 7.608785 24.968272 28.431379
1604 2 0.0 7.602440 4.986847 12.731381
1605 3 0.0 7.132204 5.003286 11.894598
1606 3 0.0 7.044549 5.487823 13.330865
1607 2 0.0 10.240679 22.471316 13.768485
1608 3 0.0 10.552252 21.963350 13.015828
1609 3 0.0 10.672787 22.069341 14.525649
1610 1 0.0 35.744890 37.026395 36.444873
1611 2 0.0 34.483666 36.695790 35.466653
1612 2 0.0 36.106002 1.157478 36.348435
1613 2 0.0 37.036476 36.146110 35.982483
1614 2 0.0 35.353417 36.650717 0.526435
1615 3 0.0 34.337939 36.502996 36.395736
1616 3 0.0 35.216733 0.961538 36.652423
1617 3 0.0 36.266804 35.633099 36.239434
1618 2 0.0 6.756794 11.804011 17.575897
1619 3 0.0 6.368038 11.034655 17.998461
1620 3 0.0 6.569546 12.528958 18.176722
1621 1 0.0 26.236268 23.431953 2.035670
1622 2 0.0 25.833437 24.747321 2.909991
1623 2 0.0 27.835572 23.457052 1.721829
1624 2 0.0 25.407041 23.437475 0.632370
1625 2 0.0 25.869022 22.085966 2.878492
1626 3 0.0 25.649764 23.906117 3.334538
1627 3 0.0 27.605152 23.442942 2.653659
1628 3 0.0 24.864475 23.420849 1.424169
1629 3 0.0 25.663060 22.911677 3.322768
1630 2 0.0 12.695985 17.393152 24.576410
1631 3 0.0 12.731378 17.283720 25.529496
1632 3 0.0 13.314248 16.742258 24.236281
1633 2 0.0 10.970355 31.874354 10.089152
1634 3 0.0 10.531249 31.296660 9.460618
1635 3 0.0 11.906848 31.726556 9.938362
1636 2 0.0 23.330825 33.387022 23.954327
1637 3 0.0 23.135896 33.531530 24.883154
1638 3 0.0 23.997149 32.695928 23.952920
1639 2 0.0 2.258653 17.869636 35.080116
1640 3 0.0 2.476983 17.038005 35.507107
1641 3 0.0 1.310921 17.823736 34.934178
1642 2 0.0 13.200809 5.933496 36.786245
1643 3 0.0 14.125208 6.135972 36.624721
1644 3 0.0 13.181083 4.981831 36.910923
1645 2 0.0 9.506714 13.039126 26.565268
1646 3 0.0 9.067662 12.280479 26.126990
1647 3 0.0 9.324548 12.999570 27.527376
1648 3 0.0 9.136469 13.872104 26.205456
1649 1 0.0 18.871866 21.083665 31.306170
1650 2 0.0 18.674905 20.912880 32.915188
1651 2 0.0 17.415517 21.263832 30.596602
1652 2 0.0 19.608886 19.759720 30.705444
1653 2 0.0 19.788157 22.398228 31.007446
1654 3 0.0 19.205522 21.667406 32.649224
1655 3 0.0 17.635580 21.934545 31.247229
1656 3 0.0 20.110869 20.237106 31.370061
1657 1 0.0 17.215831 11.888103 17.759176
1658 2 0.0 18.372110 12.273049 16.676709
1659 2 0.0 15.868762 11.417692 16.971128
1660 2 0.0 16.879509 13.189686 18.680951
1661 2 0.0 17.742942 10.671985 18.707917
1662 3 0.0 18.600945 11.561369 17.278993
1663 3 0.0 16.648680 10.886656 16.794128
1664 3 0.0 17.789341 12.886410 18.723719
1665 3 0.0 18.365851 10.963117 18.037972
1666 2 0.0 6.700681 36.261446 6.529805
1667 3 0.0 6.984752 36.329360 5.615315
1668 3 0.0 7.497488 36.418618 7.041659
1669 2 0.0 2.912125 35.211478 16.241369
1670 3 0.0 2.573355 34.350584 16.564630
1671 3 0.0 3.633534 35.511729 16.832823
1672 3 0.0 2.185750 35.868851 16.266653
1673 1 0.0 18.484843 24.289683 26.575730
1674 2 0.0 18.980636 23.557614 27.945096
1675 2 0.0 19.764996 24.966339 25.827234
1676 2 0.0 17.395698 25.445931 26.941454
1677 2 0.0 17.798043 23.188849 25.589135
1678 3 0.0 18.561961 22.978431 27.304114
1679 3 0.0 19.821398 24.015604 25.947736
1680 3 0.0 17.147567 24.556838 27.205169
1681 2 0.0 25.888435 32.433632 22.206730
1682 3 0.0 26.471910 33.059922 21.772084
1683 3 0.0 25.413253 32.957749 22.855656
1684 2 0.0 19.784937 9.804109 20.233484
1685 3 0.0 20.308125 10.101945 19.485709
1686 3 0.0 20.386277 9.258897 20.746060
1687 2 0.0 6.961094 28.466973 23.092846
1688 3 0.0 7.037940 27.680781 23.638369
1689 3 0.0 7.731467 28.993199 23.319147
1690 2 0.0 3.225950 29.554618 33.909242
1691 3 0.0 3.216572 28.643621 33.606591
1692 3 0.0 4.130077 29.703888 34.195374
1693 1 0.0 35.360287 4.069913 33.084010
1694 2 0.0 35.866251 5.618463 33.030224
1695 2 0.0 35.340359 3.452127 31.575752
1696 2 0.0 33.858694 4.010552 33.715354
1697 2 0.0 36.375843 3.198511 34.014710
1698 3 0.0 36.410762 5.031914 33.560382
1699 3 0.0 36.199214 3.756092 31.878361
1700 3 0.0 34.527107 4.386293 34.292972
1701 3 0.0 36.601176 4.127677 33.928244
1702 1 0.0 20.463989 14.446297 4.447160
1703 2 0.0 21.903320 14.029518 3.805660
1704 2 0.0 19.433451 14.852728 3.251458
1705 2 0.0 20.662890 15.717091 5.448370
1706 2 0.0 19.856297 13.185850 5.283154
1707 3 0.0 21.472645 13.340994 4.317571
1708 3 0.0 19.771829 13.955398 3.207884
1709 3 0.0 21.159291 14.930860 5.687172
1710 1 0.0 35.693289 19.682094 2.417052
1711 2 0.0 34.953063 20.947825 1.705090
1712 2 0.0 36.723716 18.990551 1.360223
1713 2 0.0 34.575895 18.589587 2.880473
1714 2 0.0 36.520483 20.200414 3.722424
1715 3 0.0 35.465934 21.165096 2.486983
1716 3 0.0 36.905397 19.911715 1.560347
1717 3 0.0 34.481510 19.459214 3.275999
1718 2 0.0 31.246185 22.271216 4.256010
1719 3 0.0 31.334626 22.613233 3.363372
1720 3 0.0 32.143918 22.060714 4.523153
1721 1 0.0 4.257009 6.727518 11.539076
1722 2 0.0 5.724351 6.433022 12.184893
1723 2 0.0 4.418474 7.056139 9.950732
1724 2 0.0 3.578371 8.004139 12.291798
1725 2 0.0 3.306840 5.416773 11.728882
1726 3 0.0 5.098095 5.708661 12.253484
1727 3 0.0 4.732028 6.189561 10.219670
1728 3 0.0 3.783944 7.259410 12.861640
1729 2 0.0 18.806434 20.731508 9.109271
1730 3 0.0 19.255841 21.329002 8.507080
1731 3 0.0 19.211664 19.876483 8.947034
1732 2 0.0 26.319214 7.838805 21.336797
1733 3 0.0 26.730711 6.971472 21.338704
1734 3 0.0 25.526110 7.730095 21.866672
1735 2 0.0 22.737719 14.438339 9.908076
1736 3 0.0 22.193247 15.127801 9.521045
1737 3 0.0 22.804256 14.676469 10.835689
1738 2 0.0 24.632973 5.749603 37.008295
1739 3 0.0 25.285192 5.998902 36.349461
1740 3 0.0 24.005187 5.202583 36.530536
1741 2 0.0 15.403423 11.609542 3.659767
1742 3 0.0 15.623667 12.290106 3.019513
1743 3 0.0 14.574291 11.901425 4.045700
1744 2 0.0 27.186140 8.176748 2.674611
1745 3 0.0 27.682750 8.373623 3.472244
1746 3 0.0 26.996331 9.036061 2.291004
1747 2 0.0 7.690402 22.169788 9.920723
1748 3 0.0 7.622341 21.309199 10.340668
1749 3 0.0 7.371045 22.027271 9.026687
1750 2 0.0 28.140213 7.964333 15.948644
1751 3 0.0 27.857801 7.679512 16.820837
1752 3 0.0 27.517989 7.549407 15.346753
1753 2 0.0 8.528805 33.176610 1.812770
1754 3 0.0 9.456527 33.348135 1.635256
1755 3 0.0 8.461537 32.219298 1.837852
1756 1 0.0 32.416005 20.431883 30.246301
1757 2 0.0 32.928283 20.010530 31.735238
1758 2 0.0 30.787235 20.388996 30.199743
1759 2 0.0 33.018602 19.388191 29.148811
1760 2 0.0 32.929902 21.939817 29.901412
1761 3 0.0 33.188396 20.889614 31.450365
1762 3 0.0 31.158858 20.998656 30.841467
1763 3 0.0 33.677029 19.869216 29.655456
1764 2 0.0 36.275652 23.820938 21.822525
1765 3 0.0 36.573178 24.503039 21.216046
1766 3 0.0 36.434023 22.997509 21.355104
1767 2 0.0 30.632641 3.213577 30.393616
1768 3 0.0 30.464428 3.190780 29.428429
1769 3 0.0 30.631741 2.296218 30.738364
1770 3 0.0 29.914479 3.717957 30.829787
1771 2 0.0 32.319836 21.370679 8.611985
1772 3 0.0 32.558201 20.543509 8.187046
1773 3 0.0 33.021332 21.524951 9.248934
1774 2 0.0 34.821009 26.943939 12.255816
1775 3 0.0 35.709235 26.687456 12.514408
1776 3 0.0 34.664963 26.474775 11.432935
1777 2 0.0 6.954271 1.326126 21.080536
1778 3 0.0 7.137165 0.451185 20.730354
1779 3 0.0 7.230036 1.926590 20.384119
1780 2 0.0 8.639400 15.482919 6.867239
1781 3 0.0 8.383009 14.599697 7.142524
1782 3 0.0 8.967948 15.370214 5.972279
1783 2 0.0 0.462935 14.110141 34.757557
1784 3 0.0 37.120469 14.530980 35.085838
1785 3 0.0 0.202495 13.721012 33.919495
1786 2 0.0 34.029625 0.113576 5.405289
1787 3 0.0 34.179537 0.833484 6.022426
1788 3 0.0 33.092715 0.162212 5.201735
1789 2 0.0 26.511929 14.630512 33.191636
1790 3 0.0 25.708106 14.867438 33.659968
1791 3 0.0 26.214425 14.070272 32.471065
1792 2 0.0 13.474950 9.782322 1.159645
1793 3 0.0 13.463379 8.844720 1.365481
1794 3 0.0 13.515715 10.216060 2.015104
1795 2 0.0 37.216413 15.841190 13.113940
1796 3 0.0 36.907079 15.096700 13.635138
1797 3 0.0 0.207044 16.409032 13.746503
1798 2 0.0 22.315451 30.974659 15.430360
1799 3 0.0 22.912569 31.713610 15.292513
1800 3 0.0 21.492966 31.249808 15.018765
1801 1 0.0 13.314159 2.713176 25.093349
1802 2 0.0 14.677398 2.636166 25.983601
1803 2 0.0 13.538910 1.922208 23.685955
1804 2 0.0 12.951872 4.272838 24.788222
1805 2 0.0 12.088456 2.021492 25.915617
1806 3 0.0 13.901412 2.249200 26.395552
1807 3 0.0 13.645664 1.385342 24.474611
1808 3 0.0 12.983173 4.038106 25.718555
1809 2 0.0 31.203519 13.739894 27.230780
1810 3 0.0 31.423688 13.905151 28.150463
1811 3 0.0 31.091094 14.613702 26.849440
1812 2 0.0 33.855044 32.713863 7.930077
1813 3 0.0 34.542729 33.344276 8.156504
1814 3 0.0 34.324181 31.890245 7.777882
1815 2 0.0 14.596102 6.754466 11.640652
1816 3 0.0 13.682099 6.556913 11.423464
1817 3 0.0 14.811700 6.145703 12.350951
1818 2 0.0 10.161883 12.663713 20.997120
1819 3 0.0 10.828827 12.964539 21.618642
1820 3 0.0 9.335666 13.005693 21.346428
1821 2 0.0 5.157086 14.738264 11.873949
1822 3 0.0 4.411020 14.499393 11.319039
1823 3 0.0 5.115223 15.695431 11.934599
1824 2 0.0 7.087316 11.769838 15.356731
1825 3 0.0 6.770886 12.673307 15.284513
1826 3 0.0 7.580444 11.752625 16.180216
1827 2 0.0 32.312039 19.791264 37.168174
1828 3 0.0 33.252577 19.971164 37.236176
1829 3 0.0 32.238087 19.168127 36.441654
1830 1 0.0 8.122184 2.859544 32.888498
1831 2 0.0 6.533349 2.754432 32.539992
1832 2 0.0 8.309801 3.202713 34.470881
1833 2 0.0 8.797964 4.041550 31.992350
1834 2 0.0 8.847621 1.439480 32.550770
1835 3 0.0 7.039684 1.956782 32.369761
1836 3 0.0 7.845099 2.383336 34.285754
1837 3 0.0 8.396007 3.329991 31.488650
1838 1 0.0 8.395595 10.339168 6.100776
1839 2 0.0 9.411206 9.265697 5.412958
1840 2 0.0 9.137858 11.059093 7.360797
1841 2 0.0 7.061107 9.564783 6.626486
1842 2 0.0 7.972208 11.467099 5.002862
1843 3 0.0 9.110378 9.968889 4.832765
1844 3 0.0 9.568554 11.182460 6.511749
1845 3 0.0 7.224873 9.496082 5.683056
1846 2 0.0 19.608613 1.470539 0.790208
1847 3 0.0 19.961501 1.199165 1.640752
1848 3 0.0 18.757373 1.030622 0.731361
1849 1 0.0 26.080201 10.644580 7.517038
1850 2 0.0 24.734230 10.756933 6.604548
1851 2 0.0 27.322305 10.135009 6.592693
1852 2 0.0 25.829912 9.579987 8.725714
1853 2 0.0 26.434357 12.106390 8.145197
1854 3 0.0 25.015745 11.577783 7.015103
1855 3 0.0 26.920435 10.960733 6.312909
1856 3 0.0 25.236220 10.334373 8.720093
1857 2 0.0 5.001732 6.912083 6.224968
1858 3 0.0 5.253712 7.837285 6.179069
1859 3 0.0 4.389189 6.865766 6.962698
1860 2 0.0 33.202206 27.779198 8.409715
1861 3 0.0 32.799308 26.912713 8.317649
1862 3 0.0 32.459699 28.383773 8.478807
1863 2 0.0 3.061295 26.615250 1.932539
1864 3 0.0 2.657355 26.172376 1.182676
1865 3 0.0 3.927669 26.881906 1.616486
1866 2 0.0 29.944580 20.205365 0.028325
1867 3 0.0 30.777273 19.878019 37.135865
1868 3 0.0 29.311962 20.051995 36.778210
1869 2 0.0 1.338369 29.770607 11.945768
1870 3 0.0 1.518121 30.297682 12.727741
1871 3 0.0 2.018663 30.029087 11.319679
1872 2 0.0 19.952913 3.440052 0.427507
1873 3 0.0 20.376816 3.943296 1.126544
1874 3 0.0 20.671856 3.184683 37.300319
1875 1 0.0 10.583275 2.637490 11.449660
1876 2 0.0 9.670004 1.289152 11.380233
1877 2 0.0 9.849599 3.742480 12.397087
1878 2 0.0 10.768793 3.245941 9.948904
1879 2 0.0 12.044703 2.272386 12.072417
1880 3 0.0 10.552365 1.163597 11.736989
1881 3 0.0 10.065640 2.914433 12.832133
1882 3 0.0 11.102980 2.354073 10.069278
1883 3 0.0 11.439693 1.530991 11.995630
1884 1 0.0 28.565178 18.112104 13.091762
1885 2 0.0 30.015375 18.122656 12.347639
1886 2 0.0 28.664162 17.235504 14.462409
1887 2 0.0 27.451704 17.449917 12.102528
1888 2 0.0 28.129472 19.640339 13.454470
1889 3 0.0 29.681417 18.987239 12.597774
1890 3 0.0 29.251244 17.994024 14.422643
1891 3 0.0 27.882945 18.235997 11.759439
1892 2 0.0 2.332049 11.997125 19.355558
1893 3 0.0 2.300224 12.673548 18.675088
1894 3 0.0 2.831515 12.398291 20.070540
1895 2 0.0 31.268453 31.769609 22.085363
1896 3 0.0 30.966369 30.998965 21.599099
1897 3 0.0 32.205761 31.827711 21.886171
1898 2 0.0 12.984615 32.973445 18.984119
1899 3 0.0 12.605150 32.190073 19.389006
1900 3 0.0 12.466085 33.107822 18.187457
1901 2 0.0 0.986300 0.685085 14.163070
1902 3 0.0 0.503660 1.514820 14.177107
1903 3 0.0 1.266909 0.585272 13.250438
1904 2 0.0 17.754310 32.314671 4.228088
1905 3 0.0 17.889878 32.759990 3.388497
1906 3 0.0 18.574119 31.840101 4.383958
1907 2 0.0 9.662612 35.298483 8.945320
1908 3 0.0 9.109864 35.505704 9.702373
1909 3 0.0 9.096075 34.781453 8.367984
1910 2 0.0 16.360958 9.965888 21.906561
1911 3 0.0 16.121491 9.197396 22.429701
1912 3 0.0 17.282501 9.823881 21.678104
1913 2 0.0 26.989039 16.969334 4.549425
1914 3 0.0 27.335767 16.296085 3.959412
1915 3 0.0 27.768621 17.381587 4.928764
1916 2 0.0 21.763375 12.636694 15.866917
1917 3 0.0 21.973747 11.980005 15.199008
1918 3 0.0 22.000043 13.474932 15.463252
1919 2 0.0 21.884043 30.440183 9.386664
1920 3 0.0 21.716679 30.117837 8.498024
1921 3 0.0 22.785776 30.768278 9.357838
1922 1 0.0 33.826288 18.266429 10.249334
1923 2 0.0 32.350065 18.859488 10.604225
1924 2 0.0 34.183534 18.593666 8.692995
1925 2 0.0 33.833681 16.652969 10.480833
1926 2 0.0 34.937873 18.959594 11.219284
1927 3 0.0 33.068242 19.216233 11.132008
1928 3 0.0 34.023010 19.363929 9.243020
1929 3 0.0 33.628189 17.173789 11.260653
1930 2 0.0 13.056896 16.458897 4.368229
1931 3 0.0 13.487491 15.901808 5.049873
1932 3 0.0 13.032363 15.964510 3.522427
1933 3 0.0 13.585056 17.275048 4.244358
1934 2 0.0 8.793731 14.468955 35.013664
1935 3 0.0 8.897108 13.516504 34.952419
1936 3 0.0 9.512295 14.752906 35.583433
1937 2 0.0 9.135119 30.000970 28.145627
1938 3 0.0 9.031432 30.829414 27.671783
1939 3 0.0 8.296256 29.874001 28.594835
1940 2 0.0 26.732033 31.565556 35.499933
1941 3 0.0 27.520906 31.853930 35.035047
1942 3 0.0 26.074589 32.234878 35.296523
1943 1 0.0 23.060533 16.314540 35.044582
1944 2 0.0 24.475194 16.709761 34.337876
1945 2 0.0 22.182074 15.394929 34.025011
1946 2 0.0 22.233047 17.672900 35.400989
1947 2 0.0 23.351815 15.480569 36.414454
1948 3 0.0 24.554963 16.213818 35.155969
1949 3 0.0 23.034992 15.028329 34.269417
1950 3 0.0 23.092518 17.599094 35.822254
1951 3 0.0 24.135202 15.754519 35.931901
1952 2 0.0 2.688981 35.224312 30.889651
1953 3 0.0 2.929092 34.983074 31.787287
1954 3 0.0 3.436046 35.735346 30.569746
1955 2 0.0 34.313450 31.932638 17.948359
1956 3 0.0 35.216122 32.190652 17.667268
1957 3 0.0 33.720352 31.949891 17.168399
1958 3 0.0 33.988960 32.579644 18.609033
1959 1 0.0 17.710407 26.448601 31.736687
1960 2 0.0 19.293226 26.131142 31.511295
1961 2 0.0 17.358850 27.918676 31.126616
1962 2 0.0 17.373718 26.427436 33.331395
1963 2 0.0 16.815832 25.317149 30.977442
1964 3 0.0 18.691495 25.509671 31.095010
1965 3 0.0 17.703317 27.287321 30.490745
1966 3 0.0 17.720096 25.604407 32.978909
1967 2 0.0 21.566200 13.665384 26.765293
1968 3 0.0 21.250953 12.785279 26.983546
1969 3 0.0 22.522643 13.596688 26.811089
1970 2 0.0 8.039582 21.961418 12.078951
1971 3 0.0 7.620166 21.098422 12.109435
1972 3 0.0 8.964984 21.785972 12.264554
1973 1 0.0 29.253602 0.311108 9.221536
1974 2 0.0 30.574478 37.166325 9.964411
1975 2 0.0 28.298420 1.044281 10.320165
1976 2 0.0 28.430997 36.552135 8.510683
1977 2 0.0 29.710513 1.392663 8.090884
1978 3 0.0 30.753663 0.359295 9.279576
1979 3 0.0 29.182151 1.411000 10.241833
1980 3 0.0 29.331768 36.668520 8.199774
1981 3 0.0 30.430835 0.987723 8.579516
1982 1 0.0 23.399016 1.212363 2.552714
1983 2 0.0 23.979886 2.500669 1.740459
1984 2 0.0 22.806211 1.699018 3.990994
1985 2 0.0 24.599479 0.136831 2.795658
1986 2 0.0 22.210490 0.512934 1.683747
1987 3 0.0 23.272036 2.027146 1.297374
1988 3 0.0 22.385988 2.094965 3.224027
1989 3 0.0 24.409750 0.331986 1.875051
1990 2 0.0 2.359016 18.078908 21.866130
1991 3 0.0 2.950312 17.654931 21.209614
1992 3 0.0 2.385973 19.050116 21.737956
1993 3 0.0 2.681214 17.867973 22.767293
1994 2 0.0 20.084731 6.857675 35.493968
1995 3 0.0 20.699096 7.153394 34.790046
1996 3 0.0 19.562844 6.097554 35.161929
1997 3 0.0 19.473588 7.592121 35.711898
1998 2 0.0 27.989513 4.452313 12.783477
1999 3 0.0 28.261001 3.534097 12.852562
2000 3 0.0 28.798492 4.927920 12.581115
2001 2 0.0 16.026006 4.321177 9.542433
2002 3 0.0 15.531809 3.672449 10.085867
2003 3 0.0 15.801678 5.225925 9.844938
2004 3 0.0 15.755602 4.222861 8.605622
2005 2 0.0 15.603779 13.876187 24.648745
2006 3 0.0 16.230264 13.137362 24.500239
2007 3 0.0 14.796498 13.720735 24.115329
2008 3 0.0 16.022671 14.712198 24.355461
2009 2 0.0 36.195497 30.848967 27.088158
2010 3 0.0 35.982668 29.949793 26.827793
2011 3 0.0 37.154779 30.883101 27.073586
2012 2 0.0 21.452396 30.681058 26.667074
2013 3 0.0 20.643378 31.132724 26.918248
2014 3 0.0 21.223635 30.205789 25.864959
2015 2 0.0 18.139825 17.226518 14.008325
2016 3 0.0 17.636757 16.488090 14.359391
2017 3 0.0 17.691081 17.456809 13.191506
2018 2 0.0 10.610928 13.780151 13.805318
2019 3 0.0 10.268465 12.903920 13.996467
2020 3 0.0 9.924793 14.378480 14.109986
2021 2 0.0 27.147610 34.267721 15.746207
2022 3 0.0 27.457375 34.020613 16.620611
2023 3 0.0 26.917770 33.434739 15.327977
2024 1 0.0 9.093650 28.944294 32.621332
2025 2 0.0 7.633641 28.305681 32.964033
2026 2 0.0 9.534564 28.513350 31.112431
2027 2 0.0 10.193631 28.388886 33.688320
2028 2 0.0 9.012766 30.569260 32.720543
2029 3 0.0 7.675719 29.264099 32.999577
2030 3 0.0 8.718850 29.016388 31.168679
2031 3 0.0 9.462629 28.875927 34.075655
2032 2 0.0 0.580511 24.922029 35.819230
2033 3 0.0 0.271253 25.510754 35.099394
2034 3 0.0 1.373544 24.434565 35.512838
2035 3 0.0 37.328115 24.277715 36.029383
2036 2 0.0 26.451087 14.682809 6.231424
2037 3 0.0 26.829802 15.242531 6.941132
2038 3 0.0 25.563362 14.374333 6.509247
2039 3 0.0 27.030731 13.904115 6.097074
2040 2 0.0 24.618033 29.803983 32.568457
2041 3 0.0 23.769135 29.975904 32.982479
2042 3 0.0 24.924049 30.666811 32.279525
2043 2 0.0 33.544233 37.217690 24.164714
2044 3 0.0 32.965192 36.489444 24.472560
2045 3 0.0 33.543515 0.475047 24.837214
2046 3 0.0 33.188118 0.117893 23.323841
2047 2 0.0 14.015853 1.376611 29.359160
2048 3 0.0 14.276338 1.073468 30.232001
2049 3 0.0 14.318050 2.286983 29.320429
2050 2 0.0 27.587759 24.897921 29.948921
2051 3 0.0 28.506595 25.169559 30.008529
2052 3 0.0 27.626519 23.956136 29.766879
2053 2 0.0 0.850060 19.896355 13.959068
2054 3 0.0 1.437985 20.604013 14.233228
2055 3 0.0 1.201059 19.112241 14.387511
2056 2 0.0 1.161783 16.036109 10.588329
2057 3 0.0 0.480512 16.516559 10.112264
2058 3 0.0 1.269177 15.219234 10.095601
2059 2 0.0 15.414515 18.307158 10.615323
2060 3 0.0 15.688410 17.581693 10.049388
2061 3 0.0 15.506636 17.964558 11.507365
2062 2 0.0 2.625077 19.128702 28.870889
2063 3 0.0 3.522911 18.908714 29.196311
2064 3 0.0 2.258372 19.855667 29.416278
2065 3 0.0 2.050810 18.340114 28.964414
2066 2 0.0 10.806465 1.747500 29.343183
2067 3 0.0 9.914056 1.857318 29.732986
2068 3 0.0 11.476264 1.829942 30.053797
2069 3 0.0 10.954498 2.456299 28.682812
2070 2 0.0 27.718056 7.857167 8.439437
2071 3 0.0 27.902172 7.891700 7.497891
2072 3 0.0 28.490341 8.252536 8.850362
2073 2 0.0 22.860469 28.470784 5.595025
2074 3 0.0 22.159512 28.843406 6.134851
2075 3 0.0 22.590327 28.651232 4.691663
2076 2 0.0 13.935433 36.403554 35.438941
2077 3 0.0 14.002285 35.774610 36.161133
2078 3 0.0 14.777859 36.863890 35.441913
2079 2 0.0 4.882128 14.126527 26.204825
2080 3 0.0 5.288028 14.438658 27.016871
2081 3 0.0 5.013310 14.842895 25.579358
2082 2 0.0 6.762988 15.859865 10.124334
2083 3 0.0 6.693935 15.255400 9.381735
2084 3 0.0 6.670956 16.732109 9.734051
2085 2 0.0 20.774390 7.472339 30.305768
2086 3 0.0 20.397409 7.982762 29.585383
2087 3 0.0 20.363722 7.831307 31.095764
2088 2 0.0 32.430023 33.794230 4.124002
2089 3 0.0 32.618108 33.425835 4.990321
2090 3 0.0 33.122515 33.444810 3.558351
2091 2 0.0 37.391509 26.084874 15.993554
2092 3 0.0 36.943410 25.728920 16.764335
2093 3 0.0 0.839072 25.768944 16.072873
2094 2 0.0 15.910737 30.216487 27.430310
2095 3 0.0 15.503784 31.082908 27.503135
2096 3 0.0 16.770393 30.318703 27.845210
2097 1 0.0 5.198659 27.144928 12.460468
2098 2 0.0 6.556255 26.737028 13.265112
2099 2 0.0 4.524309 25.806683 11.819180
2100 2 0.0 5.568130 28.192268 11.267375
2101 2 0.0 4.145943 27.843734 13.490206
2102 3 0.0 5.878546 27.157211 13.799675
2103 3 0.0 4.610242 25.799372 12.775298
2104 3 0.0 5.788228 28.491583 12.152568
2105 2 0.0 1.040856 22.913670 16.890254
2106 3 0.0 1.113394 23.196213 15.954675
2107 3 0.0 0.117126 23.043112 17.190869
2108 3 0.0 1.634205 23.469621 17.437297
2109 1 0.0 4.941514 12.501934 8.819679
2110 2 0.0 5.472317 11.500218 9.990880
2111 2 0.0 4.137144 11.641998 7.692560
2112 2 0.0 6.213276 13.250097 8.127021
2113 2 0.0 3.943320 13.615424 9.468253
2114 3 0.0 4.875237 12.190915 10.287585
2115 3 0.0 3.769139 11.594749 8.577964
2116 3 0.0 6.112123 13.409542 9.068268
2117 2 0.0 6.856203 33.638006 9.820118
2118 3 0.0 6.382700 34.151814 10.478446
2119 3 0.0 6.273971 33.629659 9.056878
2120 2 0.0 27.743112 30.493936 4.730507
2121 3 0.0 27.890921 30.772504 5.637234
2122 3 0.0 26.910454 30.016937 4.757957
2123 2 0.0 6.031402 37.220092 31.512390
2124 3 0.0 6.267188 36.467544 32.059817
2125 3 0.0 6.814576 37.387430 30.983016
2126 2 0.0 10.014342 21.694463 26.935824
2127 3 0.0 9.497258 22.503100 26.917671
2128 3 0.0 9.512340 21.100347 27.498515
2129 1 0.0 23.752086 6.389922 6.570957
2130 2 0.0 23.310327 7.946733 6.766122
2131 2 0.0 22.440648 5.495243 6.201388
2132 2 0.0 24.415770 5.836129 7.952889
2133 2 0.0 24.841598 6.281582 5.363428
2134 3 0.0 23.953748 7.791698 6.070727
2135 3 0.0 22.638815 6.200307 5.580731
2136 3 0.0 24.867805 6.585009 7.557358
2137 3 0.0 24.525921 7.169499 5.546597
2138 1 0.0 6.935618 29.751806 2.583208
2139 2 0.0 8.262029 29.302278 3.417150
2140 2 0.0 6.730502 31.363373 2.716164
2141 2 0.0 5.629167 28.986206 3.186486
2142 2 0.0 7.120772 29.355365 1.013032
2143 3 0.0 8.287024 29.104887 2.477995
2144 3 0.0 7.559919 31.091564 2.316430
2145 3 0.0 6.317027 28.408852 2.847204
2146 2 0.0 0.917732 24.173170 30.100340
2147 3 0.0 0.150779 23.570790 30.196881
2148 3 0.0 1.743258 23.647271 30.148680
2149 3 0.0 0.908967 24.819763 30.836710
2150 1 0.0 33.358654 28.604217 27.995843
2151 2 0.0 34.419673 29.316285 29.007820
2152 2 0.0 33.462732 26.984955 28.150948
2153 2 0.0 33.705411 29.026337 26.460110
2154 2 0.0 31.846801 29.089292 28.364492
2155 3 0.0 33.499871 29.548057 29.155627
2156 3 0.0 33.220867 27.454595 28.952533
2157 3 0.0 33.494738 29.758362 27.044367
2158 3 0.0 32.538494 29.463239 28.915241
2159 1 0.0 34.087724 22.480101 35.751460
2160 2 0.0 33.374746 23.392439 36.898719
2161 2 0.0 34.585484 23.436053 34.528639
2162 2 0.0 33.019902 21.386148 35.185841
2163 2 0.0 35.370763 21.705764 36.392642
2164 3 0.0 34.144057 22.899134 37.192679
2165 3 0.0 34.972206 23.637054 35.384001
2166 3 0.0 33.205395 21.323670 36.125675
2167 2 0.0 2.318626 29.951615 23.483444
2168 3 0.0 2.590579 29.114055 23.053402
2169 3 0.0 2.159492 30.627270 22.791659
2170 3 0.0 3.042971 30.259009 24.067594
2171 2 0.0 25.720088 24.878309 8.562234
2172 3 0.0 26.513931 25.403899 8.685393
2173 3 0.0 26.034090 23.971637 8.531446
2174 1 0.0 35.428566 3.259645 27.342897
2175 2 0.0 34.571773 4.472386 26.670538
2176 2 0.0 36.265046 2.477323 26.183082
2177 2 0.0 34.411947 2.217655 28.076138
2178 2 0.0 36.465496 3.871218 28.441830
2179 3 0.0 35.210403 4.745642 27.333171
2180 3 0.0 36.474548 3.409613 26.275515
2181 3 0.0 34.383264 3.116570 28.411891
2182 2 0.0 25.824242 34.486178 24.330241
2183 3 0.0 25.029998 33.973644 24.497827
2184 3 0.0 26.235483 34.581639 25.192429
2185 2 0.0 3.916515 2.905824 35.614815
2186 3 0.0 2.992331 2.734345 35.419679
2187 3 0.0 4.294997 2.037274 35.769645
2188 2 0.0 17.979977 14.644967 6.530181
2189 3 0.0 17.117099 14.885352 6.927743
2190 3 0.0 18.358277 13.888248 7.024818
2191 3 0.0 18.588434 15.409597 6.604475
2192 2 0.0 28.762204 23.438651 27.170360
2193 3 0.0 28.188424 23.115809 27.869037
2194 3 0.0 28.913434 22.673701 26.610377
2195 2 0.0 31.894510 37.341784 21.693128
2196 3 0.0 32.434840 37.051458 20.928829
2197 3 0.0 32.009357 36.700894 22.425569
2198 3 0.0 30.951065 37.356469 21.428372
2199 2 0.0 15.767442 30.942364 19.910914
2200 3 0.0 15.191112 31.499183 19.346824
2201 3 0.0 15.934281 31.410796 20.755388
2202 3 0.0 16.621462 30.801103 19.451462
2203 2 0.0 23.706955 29.064573 17.082670
2204 3 0.0 24.226643 29.766689 16.684475
2205 3 0.0 23.407540 28.535659 16.339568
2206 2 0.0 36.284398 32.088600 29.766810
2207 3 0.0 36.432099 31.645150 28.928278
2208 3 0.0 35.361209 31.919909 29.968964
2209 2 0.0 24.278103 30.610326 19.021602
2210 3 0.0 24.084066 29.698834 18.718399
2211 3 0.0 23.567814 30.900711 19.631164
2212 3 0.0 24.294163 31.207321 18.244595
2213 2 0.0 7.934114 13.293877 31.540367
2214 3 0.0 7.186350 13.376636 30.944045
2215 3 0.0 7.590472 13.561438 32.395891
2216 1 0.0 1.266138 6.015077 24.038751
2217 2 0.0 2.664653 6.581482 23.422115
2218 2 0.0 1.402872 4.414463 24.314867
2219 2 0.0 0.057211 6.282220 22.978548
2220 2 0.0 0.939815 6.782143 25.439474
2221 3 0.0 2.395733 6.981671 24.252254
2222 3 0.0 2.027475 4.963683 24.794272
2223 3 0.0 0.508851 7.071508 23.286192
2224 2 0.0 29.958338 22.548301 22.429313
2225 3 0.0 30.556445 23.049068 23.022524
2226 3 0.0 30.291538 21.630783 22.342484
2227 3 0.0 29.959059 22.971894 21.545589
2228 2 0.0 29.525943 17.108608 23.180147
2229 3 0.0 29.431558 16.153259 23.180706
2230 3 0.0 28.655076 17.436645 23.415906
2231 1 0.0 22.427549 3.119733 23.059096
2232 2 0.0 22.602212 1.721949 23.879214
2233 2 0.0 22.152317 4.335297 24.109596
2234 2 0.0 21.168021 2.993429 22.032189
2235 2 0.0 23.787646 3.428256 22.215383
2236 3 0.0 23.361726 1.980748 23.352183
2237 3 0.0 22.985853 3.874846 24.231262
2238 3 0.0 21.875043 2.360504 21.886840
2239 3 0.0 23.804674 2.618324 22.730477
2240 2 0.0 10.158306 17.374046 13.031533
2241 3 0.0 9.290272 16.968148 12.973541
2242 3 0.0 10.473175 17.399463 12.124995
2243 2 0.0 19.998266 27.510867 1.102367
2244 3 0.0 20.833416 27.066939 0.845751
2245 3 0.0 19.247349 26.910998 0.910845
2246 3 0.0 19.896123 28.327958 0.571019
2247 2 0.0 30.020197 29.277743 0.914863
2248 3 0.0 30.601974 28.542546 1.121313
2249 3 0.0 29.873315 29.712569 1.758043
2250 2 0.0 13.506171 20.293203 7.481564
2251 3 0.0 12.871205 20.913549 7.116065
2252 3 0.0 14.096516 20.094583 6.751055
2253 2 0.0 13.413158 18.969850 26.685746
2254 3 0.0 13.696448 18.101839 26.982230
2255 3 0.0 12.561002 18.816331 26.271183
2256 2 0.0 31.420529 7.814133 31.200654
2257 3 0.0 31.640289 8.191297 30.323241
2258 3 0.0 31.645386 8.469354 31.893853
2259 3 0.0 31.955371 7.005227 31.342125
2260 2 0.0 36.127751 21.733730 20.430880
2261 3 0.0 36.605354 21.891377 19.613174
2262 3 0.0 35.202075 21.759746 20.177803
2263 2 0.0 9.356386 9.106696 11.766354
2264 3 0.0 10.307409 9.214061 11.691335
2265 3 0.0 9.199029 9.006416 12.708046
2266 1 0.0 17.165284 26.065023 15.791783
2267 2 0.0 16.385532 25.640982 14.424642
2268 2 0.0 18.681584 26.539475 15.427598
2269 2 0.0 17.223686 24.787550 16.802502
2270 2 0.0 16.370335 27.292085 16.512390
2271 3 0.0 15.982397 26.361211 14.914900
2272 3 0.0 17.984953 27.055092 15.014750
2273 3 0.0 16.339667 25.077988 16.566374
2274 2 0.0 12.385930 36.580722 8.966359
2275 3 0.0 12.744504 0.015311 8.938182
2276 3 0.0 12.743304 36.202695 9.773192
2277 2 0.0 29.928591 23.354872 17.136380
2278 3 0.0 30.670617 22.842067 16.807704
2279 3 0.0 30.053495 23.376278 18.087979
2280 2 0.0 16.166774 27.604913 36.800854
2281 3 0.0 17.012322 27.917891 36.416806
2282 3 0.0 15.534247 27.426011 36.074009
2283 3 0.0 15.799358 28.307889 37.376380
2284 2 0.0 6.697150 12.348496 13.243539
2285 3 0.0 6.245898 13.194324 13.294008
2286 3 0.0 7.541777 12.550347 12.834320
2287 2 0.0 18.175274 2.373999 12.449549
2288 3 0.0 17.323167 2.629520 12.088684
2289 3 0.0 17.977337 1.643218 13.039786
2290 1 0.0 22.288177 31.204814 29.731261
2291 2 0.0 22.182100 29.580087 29.654386
2292 2 0.0 22.476695 31.808681 28.229028
2293 2 0.0 23.568385 31.622879 30.649514
2294 2 0.0 20.925529 31.807608 30.392116
2295 3 0.0 21.417014 30.019147 30.033160
2296 3 0.0 21.669398 31.307726 28.366565
2297 3 0.0 22.901408 31.098041 31.098163
2298 2 0.0 10.248520 26.411665 26.001908
2299 3 0.0 10.792594 27.225523 25.956982
2300 3 0.0 9.624614 26.487293 26.753853
2301 3 0.0 10.837584 25.643265 26.153449
2302 2 0.0 17.448075 20.514077 24.479105
2303 3 0.0 17.710287 21.076078 25.211908
2304 3 0.0 17.098722 19.722833 24.895620
2305 1 0.0 16.899775 12.697675 9.776601
2306 2 0.0 16.885251 14.022331 10.726325
2307 2 0.0 15.865888 12.908504 8.534213
2308 2 0.0 16.443213 11.398654 10.648951
2309 2 0.0 18.404750 12.461212 9.196916
2310 3 0.0 17.738174 13.808731 10.340973
2311 3 0.0 16.576825 13.551689 8.584025
2312 3 0.0 17.228356 11.847773 10.970576
2313 2 0.0 34.667658 33.967978 26.071213
2314 3 0.0 34.181953 34.761635 26.378783
2315 3 0.0 34.622849 33.278504 26.766208
2316 3 0.0 35.605950 34.207679 25.921038
2317 2 0.0 22.421582 10.677342 33.119043
2318 3 0.0 22.011319 11.487336 32.807283
2319 3 0.0 22.152952 10.010960 32.482354
2320 2 0.0 14.163446 18.760030 22.440547
2321 3 0.0 15.056085 19.085029 22.681321
2322 3 0.0 13.964999 17.956877 22.965871
2323 3 0.0 14.155763 18.527354 21.488600
2324 2 0.0 23.926220 17.433947 25.021003
2325 3 0.0 23.683471 16.638133 25.499911
2326 3 0.0 24.652326 17.162128 24.454889
2327 2 0.0 12.640083 27.980782 36.000241
2328 3 0.0 13.492501 27.988463 36.441743
2329 3 0.0 12.580313 27.106840 35.607490
2330 2 0.0 36.635806 20.715359 34.322288
2331 3 0.0 37.303591 20.475289 33.675736
2332 3 0.0 36.636485 21.675358 34.323909
2333 2 0.0 12.972887 0.499667 2.628787
2334 3 0.0 12.305506 37.395285 3.032211
2335 3 0.0 12.997585 1.282719 3.183602
2336 2 0.0 16.513864 14.773293 1.572296
2337 3 0.0 16.033333 15.205096 0.862201
2338 3 0.0 17.384163 14.602471 1.204874
2339 2 0.0 19.032940 22.678178 22.829290
2340 3 0.0 19.203310 23.037000 23.725181
2341 3 0.0 18.095107 22.399792 22.771234
2342 3 0.0 19.606227 21.896479 22.685454
2343 2 0.0 18.620057 28.997178 12.619958
2344 3 0.0 19.486458 28.587246 12.673856
2345 3 0.0 18.733119 29.717726 11.995756
2346 2 0.0 11.267430 32.637980 21.335848
2347 3 0.0 11.341333 32.845510 22.290766
2348 3 0.0 12.043905 33.010721 20.868352
2349 3 0.0 10.453502 33.053656 20.982105
