LAMMPS data file - pH=6.5, 67 Si(OH)4 + 33 Si(OH)3O- + 400 H2O + 33 H3O+

2199 atoms
3 atom types

0.0 36.831024 xlo xhi
0.0 36.831024 ylo yhi
0.0 36.831024 zlo zhi

Masses

1 28.0855  # Si
2 15.9994  # O
3 1.0079  # H

Atoms # charge

1 1 0.0 4.049203 11.735811 28.121571
2 2 0.0 4.983250 11.080583 29.285673
3 2 0.0 4.164353 10.840411 26.764405
4 2 0.0 4.550865 13.255855 27.813836
5 2 0.0 2.498344 11.766394 28.622371
6 3 0.0 4.049007 11.137334 29.499141
7 3 0.0 3.829942 10.371677 27.532558
8 3 0.0 4.266134 13.097585 28.716875
9 2 0.0 21.138917 17.523292 24.995664
10 3 0.0 20.401044 17.462783 25.606796
11 3 0.0 20.754174 17.341769 24.135070
12 2 0.0 23.803379 8.427833 22.246507
13 3 0.0 23.031573 8.449768 22.816975
14 3 0.0 24.484013 8.886251 22.744695
15 2 0.0 20.834806 34.829630 12.312510
16 3 0.0 21.734933 34.544870 12.138489
17 3 0.0 20.406567 34.057315 12.688996
18 1 0.0 23.491277 9.041998 11.130233
19 2 0.0 24.857972 9.049675 10.241984
20 2 0.0 23.683452 10.004908 12.431299
21 2 0.0 23.171574 7.521268 11.622238
22 2 0.0 22.252109 9.592143 10.225409
23 3 0.0 24.074155 9.360680 9.783173
24 3 0.0 23.780354 10.444487 11.583372
25 3 0.0 23.202682 7.641617 10.670319
26 3 0.0 23.100451 9.563378 9.776980
27 2 0.0 32.824052 26.365483 32.896934
28 3 0.0 32.972565 26.159932 33.822835
29 3 0.0 31.883826 26.222197 32.766382
30 2 0.0 7.258464 29.086847 21.594762
31 3 0.0 7.534071 28.212689 21.880222
32 3 0.0 7.857194 29.305526 20.876916
33 2 0.0 12.130675 31.992103 26.957602
34 3 0.0 11.460993 32.556577 27.350662
35 3 0.0 11.694169 31.590525 26.202752
36 1 0.0 30.642191 20.937269 8.050041
37 2 0.0 30.832766 19.845655 6.854651
38 2 0.0 32.104530 21.447418 8.558188
39 2 0.0 29.845023 20.247796 9.293444
40 2 0.0 29.786444 22.208208 7.493883
41 3 0.0 30.336811 20.630903 6.611724
42 3 0.0 31.915898 21.614515 7.631852
43 3 0.0 29.365970 20.260702 8.461613
44 2 0.0 15.201903 34.828725 15.150962
45 3 0.0 15.054071 34.118733 15.779975
46 3 0.0 15.650104 35.509821 15.657740
47 2 0.0 8.147665 32.075960 15.691443
48 3 0.0 8.818261 32.651861 15.316957
49 3 0.0 8.252273 31.246314 15.219910
50 2 0.0 34.401746 6.855889 3.109149
51 3 0.0 33.576437 7.047963 2.657958
52 3 0.0 34.909191 6.343933 2.475114
53 1 0.0 6.999350 11.147904 33.545425
54 2 0.0 7.058450 11.181650 31.916847
55 2 0.0 5.764803 10.197616 34.024742
56 2 0.0 6.773412 12.659343 34.112352
57 2 0.0 8.400737 10.553009 34.127761
58 3 0.0 7.848296 10.842816 32.344556
59 3 0.0 6.432985 9.757775 33.494014
60 3 0.0 7.571233 12.535914 33.592885
61 3 0.0 8.349853 10.607919 33.170684
62 2 0.0 14.647100 11.996437 11.254746
63 3 0.0 14.264967 12.522447 10.548426
64 3 0.0 15.015680 11.229077 10.811004
65 2 0.0 29.252508 3.284669 31.686228
66 3 0.0 29.987219 2.670850 31.757120
67 3 0.0 28.550206 2.773301 31.277726
68 2 0.0 7.595708 14.062728 10.634554
69 3 0.0 7.341000 14.125882 9.711118
70 3 0.0 6.993974 14.655125 11.091262
71 2 0.0 24.306891 25.159751 12.268634
72 3 0.0 23.568478 25.092421 12.878399
73 3 0.0 24.043625 24.630198 11.512416
74 1 0.0 15.192370 25.447365 3.912549
75 2 0.0 15.758605 26.969242 3.770535
76 2 0.0 14.439383 25.016809 2.532501
77 2 0.0 14.137381 25.373696 5.152900
78 2 0.0 16.434111 24.429712 4.194260
79 3 0.0 16.427544 26.301497 3.938574
80 3 0.0 15.366195 25.246938 2.434209
81 3 0.0 15.025376 25.649696 5.391416
82 3 0.0 16.679953 25.352579 4.096903
83 1 0.0 31.803521 26.833516 0.055982
84 2 0.0 30.517748 27.835159 0.075919
85 2 0.0 32.588670 26.985473 35.466671
86 2 0.0 31.296355 25.294750 0.234535
87 2 0.0 32.811313 27.218682 1.277826
88 3 0.0 31.165699 27.992938 0.766473
89 3 0.0 32.532207 27.790154 35.987152
90 3 0.0 31.073786 25.882117 0.960526
91 3 0.0 32.022711 27.762586 1.215576
92 2 0.0 23.519471 29.068981 28.051506
93 3 0.0 22.640805 29.196809 27.686532
94 3 0.0 24.100931 29.077348 27.287677
95 1 0.0 1.121458 15.018600 20.772809
96 2 0.0 36.801483 14.848110 21.914315
97 2 0.0 2.431441 14.141428 21.186829
98 2 0.0 1.536455 16.590104 20.650123
99 2 0.0 0.547475 14.494758 19.339968
100 3 0.0 36.545793 14.561795 21.034402
101 3 0.0 1.623210 13.635583 21.075103
102 3 0.0 0.613189 16.398994 20.469414
103 3 0.0 36.761400 14.429762 20.072474
104 2 0.0 26.627764 18.875059 27.330950
105 3 0.0 25.764192 18.457985 27.287463
106 3 0.0 26.830495 19.104179 26.421002
107 1 0.0 30.046597 15.732840 32.543690
108 2 0.0 29.955652 16.427955 34.015234
109 2 0.0 31.503302 16.047269 31.883352
110 2 0.0 28.874011 16.335066 31.584907
111 2 0.0 29.853425 14.121069 32.691266
112 3 0.0 29.851759 15.473607 34.010220
113 3 0.0 31.529681 15.568714 32.715151
114 3 0.0 28.562440 15.893503 32.378346
115 3 0.0 29.813561 14.611618 33.515507
116 2 0.0 12.640560 25.599182 15.839301
117 3 0.0 13.183311 26.132151 15.253668
118 3 0.0 13.248758 25.286701 16.513134
119 2 0.0 32.071082 2.850765 10.209558
120 3 0.0 32.366016 2.987642 11.134046
121 3 0.0 32.695310 3.305143 9.606001
122 3 0.0 31.179607 3.242444 10.098829
123 2 0.0 20.325508 19.167359 33.574683
124 3 0.0 20.790335 19.909140 33.968761
125 3 0.0 20.813517 18.977519 32.770066
126 2 0.0 26.541836 21.298678 31.858800
127 3 0.0 27.275231 21.882184 32.066768
128 3 0.0 25.798650 21.663601 32.344707
129 1 0.0 17.309019 14.211494 16.183312
130 2 0.0 16.709871 13.694110 14.758448
131 2 0.0 17.083450 15.820388 16.315511
132 2 0.0 18.903027 13.878584 16.255479
133 2 0.0 16.539726 13.452892 17.403809
134 3 0.0 16.310392 13.295762 15.535195
135 3 0.0 16.279708 15.304778 16.216800
136 3 0.0 18.333160 13.113389 16.149052
137 3 0.0 16.246816 13.205629 16.523658
138 2 0.0 11.437147 18.538926 23.882869
139 3 0.0 11.043453 17.827178 24.392791
140 3 0.0 10.884000 18.609691 23.101446
141 2 0.0 11.503944 1.427946 28.633081
142 3 0.0 11.262956 2.026452 29.343935
143 3 0.0 12.436563 1.249509 28.774437
144 2 0.0 30.310457 8.417122 0.358497
145 3 0.0 30.885876 8.660934 36.460790
146 3 0.0 30.364578 9.158259 0.966269
147 2 0.0 7.310033 17.406900 20.714638
148 3 0.0 8.003056 16.866559 20.328179
149 3 0.0 7.716462 17.801446 21.489718
150 2 0.0 36.302117 28.488248 10.958223
151 3 0.0 36.085873 28.242917 10.055643
152 3 0.0 36.186899 29.440990 10.982862
153 2 0.0 11.343452 34.514512 29.227281
154 3 0.0 11.640945 35.384910 28.952495
155 3 0.0 12.150734 34.004737 29.327413
156 2 0.0 11.083060 11.811421 30.391409
157 3 0.0 11.687269 11.369434 30.992390
158 3 0.0 10.480914 12.290999 30.965017
159 2 0.0 10.040912 26.944125 21.613415
160 3 0.0 10.008615 26.121757 22.145456
161 3 0.0 10.599109 27.601949 22.078264
162 3 0.0 9.132923 27.302393 21.526243
163 1 0.0 16.282299 30.823440 13.451774
164 2 0.0 15.695252 30.493568 14.936179
165 2 0.0 17.626288 29.939056 13.190132
166 2 0.0 16.647172 32.408928 13.351783
167 2 0.0 15.160484 30.452211 12.329001
168 3 0.0 15.095462 30.303247 14.211175
169 3 0.0 16.831554 29.428450 13.361242
170 3 0.0 15.726589 32.215782 13.543671
171 3 0.0 14.895641 30.287794 13.236979
172 2 0.0 19.722241 4.742037 17.979292
173 3 0.0 19.703891 4.591034 17.031420
174 3 0.0 19.030875 5.390050 18.133213
175 1 0.0 7.987445 17.056790 3.589874
176 2 0.0 8.479210 17.693737 2.172353
177 2 0.0 8.421601 18.046571 4.810014
178 2 0.0 8.682834 15.597654 3.800247
179 2 0.0 6.366136 16.889197 3.576881
180 3 0.0 7.531700 17.560519 2.250311
181 3 0.0 7.837907 18.439518 4.156949
182 3 0.0 8.132717 15.675835 3.017394
183 2 0.0 16.811557 7.313698 25.891406
184 3 0.0 16.345922 6.943603 25.137872
185 3 0.0 17.700758 7.476849 25.568443
186 2 0.0 5.293137 24.798102 23.407630
187 3 0.0 5.175476 24.027545 23.967985
188 3 0.0 4.400341 25.078597 23.193530
189 2 0.0 27.618677 11.741812 35.789302
190 3 0.0 28.530830 11.586112 35.533697
191 3 0.0 27.236613 10.864319 35.864364
192 2 0.0 26.092746 34.206975 32.212875
193 3 0.0 25.937948 33.351957 31.804730
194 3 0.0 25.556191 34.817954 31.702568
195 2 0.0 33.219015 30.184476 34.152611
196 3 0.0 33.442890 31.084850 34.399201
197 3 0.0 34.017039 29.841349 33.743927
198 2 0.0 33.737117 18.754988 15.375003
199 3 0.0 33.298172 18.484058 14.565358
200 3 0.0 34.130329 17.948750 15.717002
201 2 0.0 32.289288 30.776847 2.435160
202 3 0.0 32.533396 31.702773 2.366800
203 3 0.0 32.327237 30.450695 1.533060
204 2 0.0 15.485119 30.348435 4.487146
205 3 0.0 15.824807 29.585718 4.960935
206 3 0.0 16.210685 30.977034 4.491190
207 2 0.0 18.460626 34.071774 25.211381
208 3 0.0 19.175166 34.437827 25.737724
209 3 0.0 18.824661 33.265248 24.839099
210 2 0.0 3.855313 2.632725 9.297014
211 3 0.0 4.542971 2.033926 9.597290
212 3 0.0 3.923319 2.616569 8.339562
213 2 0.0 27.020998 5.152225 25.647907
214 3 0.0 26.085203 4.977749 25.523628
215 3 0.0 27.279810 4.574406 26.369531
216 2 0.0 27.790483 16.812586 14.045664
217 3 0.0 28.279873 16.823442 13.219843
218 3 0.0 27.922350 17.688777 14.415124
219 2 0.0 26.490163 22.539553 26.138922
220 3 0.0 25.682134 22.952812 26.451820
221 3 0.0 26.483556 22.685867 25.190160
222 1 0.0 33.756143 3.277804 14.759953
223 2 0.0 33.284814 3.032892 16.300981
224 2 0.0 34.760803 4.559796 14.696272
225 2 0.0 32.448127 3.565886 13.830973
226 2 0.0 34.530828 1.952641 14.211586
227 3 0.0 33.751773 2.297385 15.897772
228 3 0.0 35.061681 3.835668 15.250087
229 3 0.0 32.451751 2.714008 14.273569
230 1 0.0 9.972695 31.188462 2.095039
231 2 0.0 8.348898 31.174955 2.236455
232 2 0.0 10.628974 31.851910 3.431465
233 2 0.0 10.397017 32.065775 0.788451
234 2 0.0 10.515893 29.661206 1.923786
235 3 0.0 8.754161 30.311104 2.130988
236 3 0.0 10.101540 31.064874 3.586347
237 3 0.0 9.839768 31.306228 0.603619
238 2 0.0 34.348328 36.213512 9.352625
239 3 0.0 34.286479 35.421210 8.814079
240 3 0.0 33.436910 36.444788 9.546092
241 2 0.0 21.889674 2.219835 1.984302
242 3 0.0 21.954319 1.428409 1.444796
243 3 0.0 20.950471 2.416746 2.011190
244 2 0.0 17.923427 25.186851 11.831178
245 3 0.0 17.025260 25.462641 12.028242
246 3 0.0 17.823852 24.340275 11.389596
247 2 0.0 21.894942 6.396076 12.530798
248 3 0.0 21.978543 7.107820 13.169573
249 3 0.0 21.442868 6.794999 11.783744
250 1 0.0 5.370027 16.763409 15.382287
251 2 0.0 4.842493 17.044430 16.898742
252 2 0.0 5.909742 15.229440 15.270291
253 2 0.0 6.583131 17.793342 15.029416
254 2 0.0 4.144740 16.986426 14.330699
255 3 0.0 4.180540 17.153779 16.212111
256 3 0.0 4.986745 15.317638 15.519082
257 3 0.0 5.746686 18.211085 15.247248
258 3 0.0 3.919819 17.132105 15.252539
259 2 0.0 25.780014 13.428167 17.000769
260 3 0.0 24.876611 13.367029 17.319714
261 3 0.0 25.731704 14.030713 16.254978
262 2 0.0 1.927478 27.352608 16.270684
263 3 0.0 2.129765 27.710871 17.138052
264 3 0.0 2.460347 27.873049 15.665050
265 2 0.0 0.519879 9.507389 30.227225
266 3 0.0 0.714326 10.437804 30.361831
267 3 0.0 36.461784 9.497219 29.865336
268 1 0.0 0.561572 31.234972 33.545950
269 2 0.0 0.203584 30.645926 35.023031
270 2 0.0 2.165450 31.108059 33.284474
271 2 0.0 0.120059 32.801909 33.464240
272 2 0.0 36.588220 30.383996 32.412055
273 3 0.0 36.600752 30.199593 34.292171
274 3 0.0 1.713522 30.276470 33.445162
275 3 0.0 36.236255 32.188035 33.648034
276 3 0.0 36.433955 30.101720 33.316556
277 2 0.0 20.247698 13.579714 4.602171
278 3 0.0 20.800161 14.344167 4.781044
279 3 0.0 20.866473 12.887131 4.359174
280 2 0.0 23.506976 2.360291 36.097183
281 3 0.0 23.650300 1.588693 36.684119
282 3 0.0 22.748152 2.173466 35.505844
283 3 0.0 24.309159 2.498041 35.551355
284 2 0.0 13.828047 29.232209 3.396471
285 3 0.0 14.729176 28.958583 3.210203
286 3 0.0 13.297422 28.777009 2.738573
287 2 0.0 7.943082 6.125723 0.147244
288 3 0.0 8.686976 5.711067 36.535231
289 3 0.0 8.260455 6.303008 1.035751
290 2 0.0 34.071995 25.257398 21.329669
291 3 0.0 33.546047 25.536835 20.576745
292 3 0.0 33.682327 25.714648 22.078455
293 2 0.0 12.508523 6.345797 23.084968
294 3 0.0 13.031693 5.963286 22.376746
295 3 0.0 11.929975 5.634024 23.368274
296 2 0.0 24.338712 11.431567 26.260869
297 3 0.0 23.884071 11.825530 27.008997
298 3 0.0 25.216499 11.228567 26.592350
299 2 0.0 32.527189 32.108148 26.018867
300 3 0.0 33.120476 31.812854 25.324308
301 3 0.0 32.671837 31.489160 26.738263
302 2 0.0 17.050481 32.078242 29.835453
303 3 0.0 17.036486 32.152782 28.878453
304 3 0.0 17.868743 31.614942 30.028845
305 1 0.0 10.432240 3.887861 0.958806
306 2 0.0 9.461642 4.943158 1.734171
307 2 0.0 11.990379 4.278643 1.235195
308 2 0.0 10.132451 3.949233 36.188812
309 2 0.0 10.144486 2.380411 1.508072
310 3 0.0 9.357145 4.026193 1.998474
311 3 0.0 11.478229 4.072882 2.020666
312 3 0.0 9.381496 3.701132 36.732974
313 3 0.0 9.612296 3.068599 1.913990
314 2 0.0 20.867138 3.076839 34.088975
315 3 0.0 21.209042 3.401224 33.252628
316 3 0.0 20.484331 2.222289 33.877311
317 2 0.0 9.097443 2.777515 5.485743
318 3 0.0 8.296574 3.040011 5.026065
319 3 0.0 9.174039 3.401487 6.211271
320 2 0.0 7.412721 21.557363 12.665541
321 3 0.0 7.292967 22.491527 12.479536
322 3 0.0 6.544977 21.253849 12.942125
323 2 0.0 28.946853 23.989322 31.606375
324 3 0.0 28.044433 24.316265 31.624959
325 3 0.0 28.970831 23.310225 32.284499
326 2 0.0 20.945881 23.192268 16.585372
327 3 0.0 21.721864 23.103013 17.143480
328 3 0.0 21.190895 23.856397 15.936912
329 1 0.0 8.854170 20.876884 24.304316
330 2 0.0 8.788334 19.262980 24.523130
331 2 0.0 10.301467 21.434554 24.805550
332 2 0.0 7.668812 21.590792 25.165805
333 2 0.0 8.658067 21.219211 22.722781
334 3 0.0 8.681271 19.553924 23.614566
335 3 0.0 10.339194 20.786323 24.098463
336 3 0.0 7.368156 20.962642 24.505022
337 2 0.0 20.378166 31.180792 33.285341
338 3 0.0 20.559463 30.751072 34.124431
339 3 0.0 19.535116 31.620608 33.417362
340 2 0.0 9.145409 13.398464 14.611817
341 3 0.0 9.268941 13.485234 13.663760
342 3 0.0 9.932505 12.940837 14.916213
343 2 0.0 29.660789 6.648955 19.499041
344 3 0.0 29.050441 6.082250 19.021630
345 3 0.0 30.010193 7.243212 18.830927
346 2 0.0 16.309832 20.284165 28.095574
347 3 0.0 16.603428 19.764429 27.343726
348 3 0.0 15.968085 19.636980 28.716831
349 1 0.0 2.856284 4.344257 11.710355
350 2 0.0 4.390147 4.839347 11.953356
351 2 0.0 2.090299 5.405451 10.738740
352 2 0.0 2.079760 4.259036 13.140966
353 2 0.0 2.864930 2.873195 11.008357
354 3 0.0 4.302726 3.976700 11.541291
355 3 0.0 2.865144 4.989297 10.353993
356 3 0.0 2.853251 3.695530 13.064983
357 2 0.0 21.593362 11.919256 8.010792
358 3 0.0 21.707975 10.977948 7.861112
359 3 0.0 21.632627 12.017788 8.964914
360 2 0.0 0.571079 28.511557 24.260427
361 3 0.0 1.258319 28.212929 23.660325
362 3 0.0 0.077780 29.162886 23.756415
363 2 0.0 26.208593 22.999562 34.295874
364 3 0.0 25.467503 22.954011 34.904405
365 3 0.0 26.924597 22.554237 34.754811
366 1 0.0 32.561882 4.772456 28.026898
367 2 0.0 32.996710 4.634516 26.462035
368 2 0.0 30.938705 4.877496 28.132557
369 2 0.0 33.235645 6.114034 28.661809
370 2 0.0 33.076467 3.463777 28.851193
371 3 0.0 33.261875 3.901902 27.022896
372 3 0.0 31.267589 4.071986 27.726860
373 3 0.0 33.859761 5.467460 28.324139
374 3 0.0 33.291677 3.464445 27.915627
375 2 0.0 29.123683 29.726321 11.906892
376 3 0.0 28.574787 29.066847 12.337482
377 3 0.0 30.001769 29.338457 11.895582
378 2 0.0 26.534200 20.359570 19.666719
379 3 0.0 27.491597 20.428531 19.682038
380 3 0.0 26.275455 20.783642 18.845248
381 2 0.0 27.904960 27.266213 22.139373
382 3 0.0 28.450195 26.502183 21.937935
383 3 0.0 27.729356 27.668430 21.285567
384 2 0.0 31.867741 15.670872 12.610976
385 3 0.0 32.349842 16.347362 13.092162
386 3 0.0 32.017916 14.865892 13.112030
387 1 0.0 1.750653 9.964778 20.771383
388 2 0.0 2.424864 10.535361 22.141337
389 2 0.0 0.154050 10.293036 20.773949
390 2 0.0 1.973700 8.352332 20.686723
391 2 0.0 2.449997 10.678384 19.483522
392 3 0.0 2.780224 10.905032 21.329757
393 3 0.0 0.726480 11.062278 20.820757
394 3 0.0 2.780015 8.872130 20.722319
395 3 0.0 2.789615 10.958474 20.336640
396 2 0.0 31.684114 5.971699 11.530629
397 3 0.0 32.069472 6.710662 12.007109
398 3 0.0 31.472058 5.329985 12.212417
399 2 0.0 15.779108 9.865893 5.456551
400 3 0.0 16.380135 9.429686 6.064902
401 3 0.0 14.903778 9.642541 5.781375
402 2 0.0 21.410814 32.967718 2.912077
403 3 0.0 21.716800 32.085240 3.133896
404 3 0.0 22.132629 33.545033 3.171483
405 2 0.0 1.394527 14.775568 11.390207
406 3 0.0 0.572817 14.608645 10.922735
407 3 0.0 1.161474 14.706220 12.318903
408 2 0.0 32.631649 35.693489 30.664230
409 3 0.0 31.740221 35.405075 30.873449
410 3 0.0 33.200016 35.057431 31.104672
411 2 0.0 6.185747 7.199067 2.645570
412 3 0.0 5.235472 7.263061 2.765910
413 3 0.0 6.339319 7.535081 1.759506
414 2 0.0 13.631503 31.795303 6.952220
415 3 0.0 13.232803 31.065586 7.431961
416 3 0.0 13.128456 31.850476 6.136438
417 2 0.0 6.499173 20.702241 33.649761
418 3 0.0 6.888590 21.336721 34.255888
419 3 0.0 6.441311 21.171654 32.814355
420 2 0.0 30.463490 8.753373 26.271479
421 3 0.0 29.909215 8.693329 25.489958
422 3 0.0 30.184617 8.017599 26.821449
423 2 0.0 2.426761 10.358432 5.781667
424 3 0.0 2.747773 9.990510 6.608217
425 3 0.0 1.635795 10.844645 6.025738
426 2 0.0 25.981505 26.862786 2.011575
427 3 0.0 26.763660 27.226346 2.433070
428 3 0.0 25.285057 27.492073 2.212966
429 2 0.0 33.767145 8.441959 17.717061
430 3 0.0 34.246234 8.461946 18.548730
431 3 0.0 32.857939 8.633557 17.958383
432 2 0.0 29.985715 21.865011 23.575004
433 3 0.0 29.205257 22.031906 23.041495
434 3 0.0 29.647433 21.456455 24.375159
435 2 0.0 16.762824 16.785840 28.606779
436 3 0.0 16.661857 16.128675 27.914292
437 3 0.0 16.241800 17.534084 28.306337
438 2 0.0 13.344929 23.085113 36.607736
439 3 0.0 13.466935 23.686752 35.869668
440 3 0.0 12.399534 22.919749 36.629723
441 2 0.0 12.532900 3.935063 18.946024
442 3 0.0 11.944287 4.685259 19.057108
443 3 0.0 13.341601 4.195385 19.393053
444 2 0.0 36.685873 35.099486 18.712621
445 3 0.0 0.286843 35.766126 19.251670
446 3 0.0 36.135440 34.611066 19.329118
447 2 0.0 21.990482 24.096250 34.153727
448 3 0.0 22.798707 24.075628 34.671363
449 3 0.0 21.975539 24.974189 33.765656
450 2 0.0 18.449046 30.098231 2.146795
451 3 0.0 19.019787 29.470289 2.595730
452 3 0.0 17.824437 30.379367 2.819421
453 2 0.0 6.431078 22.564005 15.512904
454 3 0.0 6.752592 22.814747 16.382017
455 3 0.0 6.193545 23.395066 15.095153
456 2 0.0 26.610134 8.479090 13.093858
457 3 0.0 27.053905 9.307081 12.896128
458 3 0.0 25.721323 8.594238 12.749829
459 2 0.0 30.564926 35.994239 26.575039
460 3 0.0 30.073382 35.257100 26.944648
461 3 0.0 30.548508 35.843345 25.627115
462 2 0.0 25.684033 2.961738 18.067612
463 3 0.0 25.559812 3.890392 17.858399
464 3 0.0 26.434960 2.692999 17.533302
465 2 0.0 1.167397 22.137544 34.601619
466 3 0.0 0.248882 21.895158 34.463129
467 3 0.0 1.291891 22.076308 35.551541
468 2 0.0 24.056593 32.826106 4.069465
469 3 0.0 24.876078 33.016349 3.607022
470 3 0.0 23.873678 31.905833 3.866392
471 2 0.0 12.443841 22.425928 19.320875
472 3 0.0 12.813171 22.581146 20.193288
473 3 0.0 12.262311 21.483467 19.300552
474 2 0.0 11.090539 9.336724 10.204155
475 3 0.0 11.223039 10.206193 9.819359
476 3 0.0 11.601704 9.352632 11.016594
477 2 0.0 36.660697 6.507719 4.367832
478 3 0.0 0.168241 7.121773 3.712157
479 3 0.0 36.478799 5.704675 3.874239
480 2 0.0 12.662808 35.296461 6.559977
481 3 0.0 11.709286 35.407684 6.564897
482 3 0.0 12.794255 34.349971 6.467896
483 2 0.0 24.373179 15.375421 31.377298
484 3 0.0 24.496947 15.462830 32.325264
485 3 0.0 23.476983 15.682648 31.222234
486 2 0.0 19.606955 9.014957 28.168861
487 3 0.0 19.794046 9.809002 27.662807
488 3 0.0 18.652962 9.017065 28.276065
489 2 0.0 3.220036 32.455330 24.334198
490 3 0.0 2.975521 31.578113 24.638013
491 3 0.0 4.065638 32.628555 24.754377
492 2 0.0 9.942890 25.180994 34.013234
493 3 0.0 9.834109 24.788080 34.882363
494 3 0.0 10.271399 24.464862 33.464748
495 2 0.0 18.700562 24.881734 31.653903
496 3 0.0 18.438139 25.482736 32.354997
497 3 0.0 17.890592 24.710637 31.167824
498 2 0.0 25.332960 15.654622 19.161609
499 3 0.0 24.948210 15.502619 20.027901
500 3 0.0 25.090219 14.878800 18.650946
501 2 0.0 5.592281 33.151723 30.721160
502 3 0.0 5.685726 33.465799 29.818816
503 3 0.0 5.671968 33.941884 31.260508
504 2 0.0 1.878088 33.392653 32.738308
505 3 0.0 2.137542 34.135570 32.188438
506 3 0.0 1.466167 33.794301 33.506813
507 2 0.0 34.151500 9.338362 11.391789
508 3 0.0 34.195580 10.189026 11.834538
509 3 0.0 35.045673 8.992991 11.444455
510 1 0.0 16.149190 28.037229 36.173393
511 2 0.0 16.837242 26.916024 0.304857
512 2 0.0 16.064191 27.466359 34.648997
513 2 0.0 17.047675 29.397066 36.195023
514 2 0.0 14.647652 28.369468 36.713670
515 3 0.0 15.945727 27.171603 0.552810
516 3 0.0 15.592707 26.946306 35.303861
517 3 0.0 16.702601 29.125172 0.217578
518 1 0.0 7.696341 34.356536 5.613500
519 2 0.0 8.663136 34.892392 6.811443
520 2 0.0 7.502804 35.534410 4.503519
521 2 0.0 6.244015 33.946645 6.229648
522 2 0.0 8.375409 33.052697 4.909390
523 3 0.0 8.989407 34.121966 6.340708
524 3 0.0 8.409742 35.251008 4.640436
525 3 0.0 6.989157 33.459163 6.588430
526 3 0.0 8.881895 33.434547 5.629989
527 1 0.0 35.383862 6.989612 32.232453
528 2 0.0 36.381683 8.074832 32.927832
529 2 0.0 35.944311 6.608025 30.750162
530 2 0.0 33.891046 7.630689 32.100468
531 2 0.0 35.318409 5.644903 33.151351
532 3 0.0 36.284572 7.248204 33.406219
533 3 0.0 36.544212 6.412067 31.473570
534 3 0.0 34.227035 7.566177 32.997435
535 1 0.0 2.645830 18.036685 32.381021
536 2 0.0 1.164142 18.700687 32.524550
537 2 0.0 3.754121 19.033417 33.040655
538 2 0.0 2.989231 17.810115 30.803795
539 2 0.0 2.675827 16.602521 33.155085
540 3 0.0 1.270301 17.848764 32.954152
541 3 0.0 3.074690 18.725499 33.644939
542 3 0.0 2.211486 17.344962 31.120569
543 2 0.0 13.027204 12.398294 28.726110
544 3 0.0 12.595405 12.257483 27.880344
545 3 0.0 13.247144 13.332745 28.731444
546 2 0.0 23.644504 10.141190 33.089404
547 3 0.0 22.885290 10.558197 32.675522
548 3 0.0 23.295671 9.750512 33.893945
549 1 0.0 18.483552 18.771132 0.942826
550 2 0.0 19.039964 18.551593 2.459107
551 2 0.0 17.328586 19.921313 0.949100
552 2 0.0 17.855504 17.373510 0.386852
553 2 0.0 19.710153 19.238113 36.807269
554 3 0.0 19.700922 18.829190 1.820614
555 3 0.0 18.189598 20.209240 1.261122
556 3 0.0 18.784242 17.333960 0.626607
557 3 0.0 19.951345 19.085715 0.892870
558 2 0.0 6.252739 22.855090 21.253765
559 3 0.0 6.323460 21.990883 20.797098
560 3 0.0 7.110629 23.323473 21.182757
561 3 0.0 6.052916 22.699159 22.200421
562 2 0.0 9.021502 24.107441 10.841682
563 3 0.0 8.265920 24.615951 11.203501
564 3 0.0 9.562292 24.699171 10.277943
565 3 0.0 8.676558 23.372737 10.292479
566 2 0.0 25.157342 30.974225 24.365351
567 3 0.0 24.960794 31.242036 23.464659
568 3 0.0 24.302377 30.950162 24.801304
569 2 0.0 21.980510 17.231261 21.139289
570 3 0.0 22.665578 17.820109 20.814421
571 3 0.0 21.915544 16.545528 20.470596
572 1 0.0 23.605106 35.545415 15.898784
573 2 0.0 23.857249 0.222294 15.333494
574 2 0.0 24.845578 35.112292 16.863425
575 2 0.0 23.501540 34.506233 14.647274
576 2 0.0 22.216056 35.509817 16.750942
577 3 0.0 23.055655 0.111386 15.849970
578 3 0.0 24.361354 35.890174 17.149825
579 3 0.0 22.844563 35.206217 14.648826
580 3 0.0 22.442409 36.365667 16.379612
581 2 0.0 4.938197 4.771320 2.169025
582 3 0.0 5.347056 5.357452 1.528022
583 3 0.0 5.485496 3.982695 2.157467
584 1 0.0 3.247149 6.458405 26.335392
585 2 0.0 2.575575 5.421387 25.272150
586 2 0.0 3.357984 7.936320 25.656878
587 2 0.0 4.736242 5.933244 26.740001
588 2 0.0 2.318796 6.542667 27.672538
589 3 0.0 2.090402 5.531506 26.093174
590 3 0.0 2.466422 7.586874 25.724739
591 3 0.0 4.021832 5.326336 26.947079
592 3 0.0 1.994454 5.950483 26.990101
593 2 0.0 28.750010 6.814517 33.930734
594 3 0.0 28.369076 7.682422 34.083153
595 3 0.0 29.631603 6.994046 33.595825
596 1 0.0 33.678130 10.926059 36.559272
597 2 0.0 34.687660 12.204119 36.493600
598 2 0.0 32.468903 11.242032 0.774589
599 2 0.0 34.499510 9.610011 0.228503
600 2 0.0 33.056449 10.648073 35.078348
601 3 0.0 34.274933 11.969815 35.659120
602 3 0.0 32.533059 11.848842 0.033465
603 3 0.0 34.824667 10.007053 36.248213
604 3 0.0 33.665416 11.388384 35.130298
605 2 0.0 1.062030 27.650923 6.602698
606 3 0.0 0.252076 27.536933 7.105272
607 3 0.0 1.669396 28.069928 7.216816
608 2 0.0 23.090270 4.884857 34.418146
609 3 0.0 23.296321 4.614097 33.520464
610 3 0.0 22.163120 5.132029 34.388176
611 2 0.0 21.253985 9.624335 35.992710
612 3 0.0 20.394308 9.687282 36.415313
613 3 0.0 21.867010 9.980573 36.639931
614 2 0.0 13.156770 25.579068 7.464406
615 3 0.0 12.602470 25.936516 6.739574
616 3 0.0 13.969271 26.121680 7.540656
617 3 0.0 13.409080 24.657410 7.246949
618 2 0.0 30.983905 19.433577 14.103022
619 3 0.0 30.133842 19.865370 14.215043
620 3 0.0 30.789986 18.652452 13.579726
621 2 0.0 12.315176 6.520448 14.446908
622 3 0.0 13.011570 6.707802 13.813241
623 3 0.0 11.773895 7.313289 14.451103
624 2 0.0 28.118948 32.405979 4.332272
625 3 0.0 28.250312 33.113477 3.696828
626 3 0.0 27.187923 32.457363 4.560637
627 2 0.0 23.791735 5.947986 28.691149
628 3 0.0 23.690437 5.000040 28.578297
629 3 0.0 23.436374 6.325877 27.883363
630 2 0.0 9.309978 32.160222 29.936750
631 3 0.0 8.752606 32.267523 30.710975
632 3 0.0 8.786208 32.510849 29.212647
633 1 0.0 2.545609 17.035228 25.245087
634 2 0.0 2.212598 16.517653 23.735743
635 2 0.0 3.424378 18.405891 25.167950
636 2 0.0 3.393104 15.890334 26.037469
637 2 0.0 1.152356 17.327035 26.039187
638 3 0.0 1.443843 16.714012 24.276168
639 3 0.0 2.559995 18.454246 24.753096
640 3 0.0 2.524702 15.615357 25.734377
641 3 0.0 1.047674 17.016445 25.136870
642 2 0.0 35.153214 23.845121 23.307167
643 3 0.0 35.058365 23.696906 22.343094
644 3 0.0 35.020742 24.797369 23.497100
645 3 0.0 36.058805 23.589230 23.580709
646 2 0.0 12.324315 1.581395 3.988326
647 3 0.0 12.438398 1.687811 4.935564
648 3 0.0 11.618606 0.936339 3.901856
649 2 0.0 32.391180 12.466934 32.396801
650 3 0.0 33.026710 11.844517 32.757770
651 3 0.0 31.701738 12.520382 33.062693
652 2 0.0 22.605214 18.524985 28.983772
653 3 0.0 23.292079 18.490329 28.313985
654 3 0.0 22.194919 19.384519 28.863520
655 2 0.0 3.656098 28.158169 18.980353
656 3 0.0 4.243871 27.565590 18.506041
657 3 0.0 3.431432 27.682491 19.783382
658 2 0.0 10.733807 7.476334 26.084882
659 3 0.0 10.687532 7.913143 25.231268
660 3 0.0 9.949985 7.775796 26.551300
661 2 0.0 27.008842 21.598083 22.672311
662 3 0.0 27.144880 22.226184 21.959161
663 3 0.0 27.174811 20.740960 22.273068
664 2 0.0 28.207606 13.365867 18.104431
665 3 0.0 29.140264 13.315642 17.882562
666 3 0.0 27.842180 12.532563 17.798377
667 2 0.0 35.701116 13.241529 9.258734
668 3 0.0 36.072678 12.389920 9.500195
669 3 0.0 34.752435 13.123947 9.346938
670 2 0.0 25.371482 22.037274 6.015046
671 3 0.0 26.110317 22.554308 6.344289
672 3 0.0 24.968721 21.664373 6.802656
673 2 0.0 0.752974 2.892765 6.834057
674 3 0.0 0.108698 3.061082 6.142552
675 3 0.0 1.294904 3.684868 6.856086
676 2 0.0 28.920788 23.986874 27.377565
677 3 0.0 29.387088 24.786026 27.700551
678 3 0.0 29.054205 23.910173 26.409724
679 3 0.0 27.962644 24.082209 27.559968
680 2 0.0 8.250713 19.848616 18.758114
681 3 0.0 9.017651 20.180627 18.285700
682 3 0.0 8.542791 19.015940 19.136192
683 2 0.0 33.549802 29.564705 13.354594
684 3 0.0 33.188476 29.905242 12.532962
685 3 0.0 32.879580 29.762916 14.012708
686 2 0.0 1.275069 12.191979 24.448549
687 3 0.0 1.937164 12.862551 24.265345
688 3 0.0 0.462946 12.685958 24.582867
689 2 0.0 36.455129 14.952118 1.439502
690 3 0.0 35.540201 14.934238 1.149354
691 3 0.0 36.490542 15.666165 2.080191
692 2 0.0 34.176261 24.363227 26.822047
693 3 0.0 34.673618 23.571776 27.040774
694 3 0.0 33.854949 24.207008 25.931006
695 2 0.0 5.550390 11.428723 18.149724
696 3 0.0 5.873405 12.078785 18.808117
697 3 0.0 5.149762 10.669514 18.622481
698 3 0.0 6.310037 11.108451 17.619855
699 1 0.0 19.739174 3.791670 36.205446
700 2 0.0 19.777225 4.558883 0.812073
701 2 0.0 19.620173 2.184553 36.450218
702 2 0.0 21.106986 4.115778 35.380253
703 2 0.0 18.452311 4.307467 35.348219
704 3 0.0 19.046371 4.804729 0.240223
705 3 0.0 18.897857 2.704368 36.810288
706 3 0.0 20.575773 4.883819 35.602797
707 3 0.0 18.551305 4.710785 36.213745
708 2 0.0 20.418277 10.419101 32.759026
709 3 0.0 20.147586 11.292275 32.465950
710 3 0.0 21.100869 10.585654 33.413189
711 2 0.0 26.601373 16.481900 29.023973
712 3 0.0 27.261057 15.859756 28.708769
713 3 0.0 26.779156 17.289150 28.535772
714 2 0.0 28.051068 27.384362 33.988809
715 3 0.0 28.228676 26.545747 33.556627
716 3 0.0 27.541395 27.150404 34.767973
717 2 0.0 35.641086 29.692770 21.874242
718 3 0.0 36.280678 28.992557 21.725166
719 3 0.0 35.204434 29.804370 21.026610
720 2 0.0 28.829496 28.537521 28.792575
721 3 0.0 29.672170 28.100864 28.936907
722 3 0.0 28.869862 28.844187 27.883770
723 2 0.0 10.896019 29.710031 35.981540
724 3 0.0 10.288322 29.928668 35.271256
725 3 0.0 10.454986 29.010255 36.468780
726 2 0.0 29.173998 34.633850 15.574744
727 3 0.0 30.003988 35.114618 15.614485
728 3 0.0 29.384016 33.762289 15.918071
729 2 0.0 10.996828 30.645872 15.536123
730 3 0.0 11.775147 30.751767 16.088033
731 3 0.0 11.306760 30.826669 14.645700
732 1 0.0 27.018358 9.114708 27.827147
733 2 0.0 28.585679 8.712660 27.630266
734 2 0.0 26.308170 8.053068 28.839793
735 2 0.0 26.262429 9.077587 26.383508
736 2 0.0 26.917154 10.615519 28.455021
737 3 0.0 28.434052 9.586550 27.997590
738 3 0.0 27.046937 8.538682 29.213960
739 3 0.0 26.995317 9.694885 26.441962
740 3 0.0 27.810592 10.297570 28.305767
741 2 0.0 0.857222 36.810948 22.000303
742 3 0.0 1.446293 36.164517 22.396184
743 3 0.0 0.692210 0.615734 22.700386
744 2 0.0 31.213738 17.080541 18.294657
745 3 0.0 31.086324 17.976742 17.974985
746 3 0.0 30.653952 16.541939 17.730611
747 2 0.0 35.074028 32.465114 16.442738
748 3 0.0 34.660036 31.676563 16.084412
749 3 0.0 35.996565 32.223607 16.553192
750 1 0.0 24.633512 11.275110 4.696555
751 2 0.0 23.570201 12.085043 5.629442
752 2 0.0 24.141673 11.324956 3.143329
753 2 0.0 24.717996 9.723960 5.190212
754 2 0.0 26.104178 11.966480 4.823235
755 3 0.0 24.466823 12.427720 5.645016
756 3 0.0 24.309082 12.181334 3.543569
757 3 0.0 24.959481 10.374557 5.853543
758 3 0.0 25.413666 12.383417 5.343770
759 2 0.0 15.477497 2.778790 25.213239
760 3 0.0 15.562819 1.887386 24.867233
761 3 0.0 16.226633 3.252732 24.844765
762 1 0.0 24.774736 18.868931 15.731029
763 2 0.0 25.324837 17.888078 16.910950
764 2 0.0 23.282677 19.399553 16.117167
765 2 0.0 24.711840 18.045824 14.325526
766 2 0.0 25.779587 20.142271 15.570472
767 3 0.0 25.860631 18.668019 16.749036
768 3 0.0 23.971244 19.633348 16.743917
769 3 0.0 25.584102 18.105620 14.721991
770 3 0.0 26.030553 19.510319 16.248154
771 2 0.0 11.763183 9.593516 36.111328
772 3 0.0 11.130828 9.856455 35.438580
773 3 0.0 11.993796 8.689596 35.884729
774 2 0.0 15.925479 11.688825 36.457311
775 3 0.0 16.754260 12.157616 36.579602
776 3 0.0 16.056441 10.848326 0.071272
777 2 0.0 30.486480 11.624383 12.274343
778 3 0.0 31.242216 11.067977 12.072162
779 3 0.0 30.221319 11.358466 13.157846
780 2 0.0 33.273511 23.199823 13.984404
781 3 0.0 33.019734 23.522997 14.852019
782 3 0.0 33.066489 23.923132 13.388110
783 1 0.0 17.646739 16.612966 32.971509
784 2 0.0 19.081648 17.079526 32.354856
785 2 0.0 17.882009 15.407390 34.043019
786 2 0.0 16.682279 16.088503 31.766662
787 2 0.0 16.941022 17.876446 33.721497
788 3 0.0 18.595741 17.766772 32.816579
789 3 0.0 18.325084 16.231905 34.256232
790 3 0.0 16.971150 17.000564 31.687289
791 1 0.0 5.565529 24.704007 0.483307
792 2 0.0 4.584052 23.598094 1.169280
793 2 0.0 4.901895 26.185444 0.631074
794 2 0.0 5.761335 24.351432 35.735010
795 2 0.0 7.014834 24.681058 1.228886
796 3 0.0 5.463654 23.651661 1.550108
797 3 0.0 5.081459 25.736746 1.460548
798 3 0.0 6.051366 23.667004 36.342497
799 2 0.0 14.602856 15.594533 33.004269
800 3 0.0 13.861805 15.261559 33.515711
801 3 0.0 15.126162 14.815190 32.803334
802 2 0.0 28.530616 30.554125 7.935872
803 3 0.0 27.583801 30.576483 7.778895
804 3 0.0 28.920039 30.550047 7.058414
805 2 0.0 11.328886 18.548049 7.268999
806 3 0.0 10.481205 18.244297 6.936176
807 3 0.0 11.212464 18.590565 8.220965
808 2 0.0 12.127501 8.954860 27.304872
809 3 0.0 11.479171 9.463541 27.797326
810 3 0.0 12.610823 8.467128 27.975780
811 2 0.0 33.350698 16.295390 20.228062
812 3 0.0 32.550319 16.814050 20.337540
813 3 0.0 33.135565 15.663550 19.538065
814 2 0.0 31.639371 21.597259 19.144995
815 3 0.0 32.143916 22.406258 19.032949
816 3 0.0 32.231796 21.007555 19.617098
817 2 0.0 34.499883 5.814155 25.023413
818 3 0.0 35.211027 6.455371 24.954733
819 3 0.0 34.536037 5.325299 24.197996
820 2 0.0 21.051500 30.298337 31.472940
821 3 0.0 20.531639 30.949862 30.996642
822 3 0.0 20.645915 29.457220 31.250180
823 2 0.0 8.300912 23.977123 28.952506
824 3 0.0 8.285320 24.877645 29.284795
825 3 0.0 7.940897 24.041819 28.064922
826 2 0.0 18.642188 28.943592 17.230303
827 3 0.0 18.505404 29.705803 17.797688
828 3 0.0 19.361664 28.461367 17.644324
829 2 0.0 15.751893 26.789830 30.691313
830 3 0.0 14.960456 26.615278 30.176765
831 3 0.0 16.230102 25.957424 30.687208
832 2 0.0 15.119516 18.076649 10.476335
833 3 0.0 15.626816 18.883877 10.588713
834 3 0.0 15.776195 17.376443 10.485507
835 2 0.0 27.196614 14.176266 10.460566
836 3 0.0 26.623395 14.946195 10.475685
837 3 0.0 28.080752 14.532147 10.575674
838 2 0.0 23.387187 22.960111 4.747847
839 3 0.0 24.306706 22.714701 4.873781
840 3 0.0 23.189768 22.698855 3.845422
841 2 0.0 28.312786 11.242655 6.838348
842 3 0.0 28.547898 11.895672 7.501591
843 3 0.0 28.422632 10.398515 7.282151
844 2 0.0 25.196377 34.495633 24.916534
845 3 0.0 24.254054 34.743887 25.020450
846 3 0.0 25.619412 35.111389 24.282274
847 3 0.0 25.247698 33.584982 24.558091
848 2 0.0 20.510761 30.547681 12.457037
849 3 0.0 19.778160 31.131603 12.247439
850 3 0.0 20.113509 29.675957 12.519392
851 2 0.0 24.047178 25.322399 3.448163
852 3 0.0 23.998976 25.439760 2.496584
853 3 0.0 24.953349 25.050838 3.611588
854 2 0.0 1.633399 22.922527 5.265203
855 3 0.0 2.529407 23.266953 5.253326
856 3 0.0 1.183171 23.398725 4.563684
857 2 0.0 29.948734 22.692693 17.261419
858 3 0.0 30.466912 23.047099 17.987702
859 3 0.0 29.777963 21.781260 17.509870
860 1 0.0 2.871877 35.140540 15.816802
861 2 0.0 1.577688 35.486527 14.888219
862 2 0.0 3.532856 33.733990 15.325251
863 2 0.0 2.404187 35.006725 17.372521
864 2 0.0 3.972777 36.334917 15.681220
865 3 0.0 2.278860 36.141907 14.867345
866 3 0.0 3.508382 34.425287 14.659586
867 3 0.0 2.234642 35.861611 16.969998
868 3 0.0 3.173807 36.458915 15.163657
869 2 0.0 15.491194 21.387437 18.540713
870 3 0.0 15.234183 21.179884 19.442083
871 3 0.0 14.776626 21.934580 18.206607
872 2 0.0 3.842646 21.407335 36.470520
873 3 0.0 4.253955 20.723170 35.937281
874 3 0.0 4.314265 22.210332 36.237343
875 2 0.0 12.601364 28.228224 34.445624
876 3 0.0 11.996243 27.792971 33.840659
877 3 0.0 12.471251 27.776549 35.282679
878 2 0.0 7.714006 30.854579 7.411441
879 3 0.0 7.629999 30.061979 6.876344
880 3 0.0 8.385374 30.635849 8.061842
881 2 0.0 7.497182 29.598251 28.455722
882 3 0.0 7.941755 29.429272 29.289629
883 3 0.0 8.045140 30.254834 28.019558
884 2 0.0 28.752078 23.744934 12.808093
885 3 0.0 28.054117 23.103380 12.656903
886 3 0.0 29.442802 23.499747 12.188106
887 1 0.0 28.468455 1.220266 4.463826
888 2 0.0 27.774890 1.225688 5.938899
889 2 0.0 27.947184 36.755781 3.623092
890 2 0.0 30.088756 1.146979 4.625545
891 2 0.0 28.062988 2.583641 3.667769
892 3 0.0 27.587076 1.997243 5.399429
893 3 0.0 27.257962 0.533193 3.899458
894 3 0.0 29.674796 1.912511 5.030760
895 2 0.0 20.265640 21.727297 21.313994
896 3 0.0 21.176220 21.946490 21.103283
897 3 0.0 20.311242 20.845186 21.690026
898 2 0.0 17.974349 7.185765 10.670015
899 3 0.0 17.792209 6.803902 9.808269
900 3 0.0 18.859580 6.883009 10.885202
901 1 0.0 33.875799 3.429057 20.954615
902 2 0.0 34.232739 2.598669 22.311062
903 2 0.0 32.362562 4.024805 21.064611
904 2 0.0 33.976070 2.434949 19.666750
905 2 0.0 34.931823 4.657805 20.776036
906 3 0.0 34.809130 3.344308 22.128320
907 3 0.0 32.968019 4.326912 21.745606
908 3 0.0 34.788916 2.532707 20.168074
909 3 0.0 35.070349 4.113724 21.554743
910 2 0.0 18.983295 18.834915 11.220037
911 3 0.0 18.496942 19.514555 11.692425
912 3 0.0 19.555313 18.442866 11.883884
913 2 0.0 3.288738 27.852643 10.618111
914 3 0.0 3.406633 26.999676 11.042550
915 3 0.0 2.849809 27.650145 9.788691
916 2 0.0 0.958387 17.348692 16.589143
917 3 0.0 1.231730 17.104494 15.701871
918 3 0.0 0.015105 17.171289 16.607788
919 1 0.0 4.778113 5.737885 16.117488
920 2 0.0 5.075248 4.221680 15.598130
921 2 0.0 3.726913 5.689596 17.362296
922 2 0.0 4.139047 6.613681 14.900329
923 2 0.0 6.171245 6.426583 16.609198
924 3 0.0 5.846093 4.702843 15.907772
925 3 0.0 4.548752 5.214892 17.506641
926 3 0.0 5.013859 6.257752 14.728231
927 3 0.0 6.255623 5.526726 16.285566
928 2 0.0 30.076310 20.286591 4.872320
929 3 0.0 30.506371 19.459510 5.101631
930 3 0.0 29.615058 20.098588 4.051648
931 2 0.0 14.892771 20.429190 7.348121
932 3 0.0 14.805411 20.411389 8.303972
933 3 0.0 14.155709 19.903217 7.029228
934 2 0.0 7.094088 9.226169 11.682862
935 3 0.0 7.456119 8.529482 12.235276
936 3 0.0 6.794627 8.774084 10.890686
937 2 0.0 3.508739 18.180073 20.699797
938 3 0.0 2.577408 18.210411 20.930671
939 3 0.0 3.562036 17.524988 20.000066
940 1 0.0 1.727003 12.945558 32.347042
941 2 0.0 2.880009 14.097482 32.370469
942 2 0.0 1.018442 12.856156 33.812255
943 2 0.0 2.402636 11.507893 31.981610
944 2 0.0 0.606926 13.320700 31.223834
945 3 0.0 2.176477 14.240542 31.733149
946 3 0.0 0.946011 13.709222 33.377936
947 3 0.0 2.508120 12.187663 31.311993
948 3 0.0 1.327119 13.950290 31.304698
949 1 0.0 35.849751 23.922538 18.632760
950 2 0.0 34.596989 22.923583 18.932053
951 2 0.0 36.723369 24.121478 19.994419
952 2 0.0 35.284989 25.367780 18.133542
953 2 0.0 36.793656 23.277310 17.471027
954 3 0.0 35.206784 22.618406 18.256318
955 3 0.0 36.660797 23.216186 19.681161
956 3 0.0 35.037538 24.622679 17.581100
957 3 0.0 36.027589 22.750580 17.710392
958 2 0.0 13.598459 25.041784 22.137266
959 3 0.0 12.950840 24.899657 22.831521
960 3 0.0 14.245448 24.344182 22.265162
961 1 0.0 9.366507 29.120329 12.454723
962 2 0.0 10.026741 29.004547 10.968928
963 2 0.0 9.776795 30.549909 13.121705
964 2 0.0 9.918739 27.905578 13.390843
965 2 0.0 7.743754 29.021282 12.337414
966 3 0.0 9.068274 28.955439 10.991937
967 3 0.0 9.284595 30.612030 12.299829
968 3 0.0 9.444783 27.627816 12.603560
969 2 0.0 15.903893 5.043475 21.327550
970 3 0.0 15.784446 4.091132 21.308179
971 3 0.0 16.118621 5.277594 20.421636
972 1 0.0 33.170115 20.715559 23.336886
973 2 0.0 33.518410 22.229497 23.830428
974 2 0.0 32.383984 20.776499 21.910287
975 2 0.0 32.225552 19.985974 24.447025
976 2 0.0 34.552512 19.870267 23.159805
977 3 0.0 34.280100 21.659813 23.700468
978 3 0.0 33.262781 21.162889 21.906088
979 3 0.0 33.083986 20.270756 24.768880
980 3 0.0 34.666501 20.778265 23.449884
981 2 0.0 9.754036 10.802632 12.152326
982 3 0.0 9.128256 10.631453 11.444726
983 3 0.0 9.613678 11.724633 12.379951
984 1 0.0 9.939424 23.604426 6.725255
985 2 0.0 9.028915 24.955833 6.685606
986 2 0.0 9.041212 22.329971 6.249988
987 2 0.0 10.475692 23.354958 8.244163
988 2 0.0 11.211878 23.776942 5.721262
989 3 0.0 9.804121 24.972169 6.119576
990 3 0.0 9.130679 23.028938 5.598037
991 3 0.0 10.749537 24.185670 7.848529
992 3 0.0 10.619805 24.531665 5.759241
993 2 0.0 28.884366 5.364830 10.187724
994 3 0.0 28.262515 6.077048 10.021452
995 3 0.0 29.731158 5.804499 10.293718
996 2 0.0 27.744236 2.537796 0.270317
997 3 0.0 28.273013 2.984001 36.435836
998 3 0.0 27.365552 1.784364 36.642496
999 2 0.0 22.848991 23.208738 36.233594
1000 3 0.0 23.092717 23.551403 0.265576
1001 3 0.0 22.088992 23.733708 35.972045
1002 2 0.0 4.785598 0.652784 24.084330
1003 3 0.0 5.198631 1.518304 24.127668
1004 3 0.0 3.946714 0.808182 23.644190
1005 2 0.0 36.153091 27.391553 29.509302
1006 3 0.0 36.587636 26.535747 29.528431
1007 3 0.0 36.072481 27.599746 28.575622
1008 2 0.0 26.826523 10.616402 31.589417
1009 3 0.0 26.394213 10.716947 32.440650
1010 3 0.0 27.722449 10.347088 31.804792
1011 2 0.0 25.599751 27.951047 19.834869
1012 3 0.0 25.570120 27.039561 20.134729
1013 3 0.0 24.819500 28.048745 19.284176
1014 2 0.0 16.082261 6.266023 16.082719
1015 3 0.0 15.131474 6.395507 16.111674
1016 3 0.0 16.275305 5.726772 16.853136
1017 2 0.0 29.918688 30.675021 34.679249
1018 3 0.0 30.483890 29.940655 34.428547
1019 3 0.0 29.041582 30.290971 34.748467
1020 2 0.0 4.252444 17.110678 10.453279
1021 3 0.0 4.361961 17.193608 11.403399
1022 3 0.0 4.667768 16.273061 10.235325
1023 2 0.0 34.135434 17.963611 33.514216
1024 3 0.0 33.385016 18.134415 32.907504
1025 3 0.0 33.782811 17.708226 34.392188
1026 3 0.0 34.660939 18.785320 33.609294
1027 2 0.0 26.714368 36.174672 11.486555
1028 3 0.0 26.845141 35.319152 11.071123
1029 3 0.0 25.802143 36.400518 11.290498
1030 2 0.0 30.147232 10.213152 17.453263
1031 3 0.0 29.628893 10.076613 18.249681
1032 3 0.0 29.511394 10.143617 16.737389
1033 1 0.0 13.886011 1.948204 12.810652
1034 2 0.0 14.217420 0.774848 11.728846
1035 2 0.0 13.323275 3.263800 12.029989
1036 2 0.0 15.244508 2.337984 13.622721
1037 2 0.0 12.758840 1.416183 13.861052
1038 3 0.0 13.559320 0.544261 12.388645
1039 3 0.0 12.800420 2.467390 11.911868
1040 3 0.0 14.968595 1.422576 13.709318
1041 3 0.0 13.014308 0.783901 13.185363
1042 2 0.0 33.663020 17.154520 9.060303
1043 3 0.0 34.510822 17.583275 9.198143
1044 3 0.0 33.821600 16.531143 8.347664
1045 2 0.0 2.993477 13.990615 16.174890
1046 3 0.0 2.560101 14.846902 16.151272
1047 3 0.0 2.505046 13.491747 16.833803
1048 2 0.0 7.228758 3.969538 22.741399
1049 3 0.0 7.657975 3.688561 21.906399
1050 3 0.0 6.681797 4.763626 22.566305
1051 3 0.0 7.922744 4.198985 23.394192
1052 2 0.0 28.304377 12.836134 15.365851
1053 3 0.0 27.546755 12.762311 15.983071
1054 3 0.0 28.939167 13.494084 15.718758
1055 3 0.0 27.976652 13.145392 14.495589
1056 1 0.0 2.497490 15.326588 5.191568
1057 2 0.0 3.918045 16.067584 5.491313
1058 2 0.0 2.623400 13.742755 5.555602
1059 2 0.0 2.119809 15.493304 3.614716
1060 2 0.0 1.328704 16.002708 6.104641
1061 3 0.0 3.170834 16.405776 5.990214
1062 3 0.0 2.782125 14.341489 6.289036
1063 3 0.0 2.213806 16.317041 4.098682
1064 3 0.0 2.203303 16.381534 6.219389
1065 2 0.0 2.512406 7.263285 34.649488
1066 3 0.0 2.545646 6.367442 34.992941
1067 3 0.0 1.575489 7.464707 34.592779
1068 2 0.0 0.763810 7.641410 1.702980
1069 3 0.0 0.055139 7.813812 1.078751
1070 3 0.0 1.542994 8.025861 1.294728
1071 2 0.0 16.698330 5.056552 8.534517
1072 3 0.0 16.156249 4.301485 8.294467
1073 3 0.0 17.365726 5.102327 7.845977
1074 2 0.0 18.685305 33.174530 18.542241
1075 3 0.0 18.925156 32.513778 19.196060
1076 3 0.0 17.805860 33.460244 18.800202
1077 2 0.0 24.426903 7.255178 33.377861
1078 3 0.0 24.022543 8.125699 33.360917
1079 3 0.0 24.528895 7.019122 32.452942
1080 2 0.0 21.300882 31.105825 9.864433
1081 3 0.0 21.937194 31.495314 9.260276
1082 3 0.0 20.457076 31.478363 9.598338
1083 2 0.0 2.380494 8.303316 12.130406
1084 3 0.0 3.014498 8.733094 12.709137
1085 3 0.0 1.973536 9.023005 11.642520
1086 2 0.0 15.359702 18.848838 33.440994
1087 3 0.0 15.848103 19.662321 33.295016
1088 3 0.0 14.658512 18.868170 32.785586
1089 2 0.0 30.318961 34.670099 23.222555
1090 3 0.0 29.484925 34.197703 23.275705
1091 3 0.0 30.949459 34.095618 23.663059
1092 2 0.0 5.384655 34.166093 3.060776
1093 3 0.0 6.300609 34.369195 2.857360
1094 3 0.0 4.881802 34.855161 2.620408
1095 2 0.0 16.712350 0.450114 32.020389
1096 3 0.0 17.332468 1.008591 32.494897
1097 3 0.0 16.021565 0.260412 32.659474
1098 1 0.0 19.106691 9.870483 5.773509
1099 2 0.0 20.524888 9.183139 5.357367
1100 2 0.0 18.283281 10.275625 4.426380
1101 2 0.0 19.390829 11.208692 6.659716
1102 2 0.0 18.227765 8.814477 6.650572
1103 3 0.0 19.941925 8.626644 5.878967
1104 3 0.0 18.482757 9.340692 4.514183
1105 3 0.0 19.732662 10.393689 7.034576
1106 2 0.0 24.739195 20.287395 1.186385
1107 3 0.0 24.428139 21.138936 0.870597
1108 3 0.0 25.353847 20.502187 1.891841
1109 2 0.0 19.920483 11.255117 19.355534
1110 3 0.0 19.669121 11.973258 18.770137
1111 3 0.0 20.813473 11.027001 19.086961
1112 2 0.0 28.148734 13.210322 1.578002
1113 3 0.0 28.230511 14.164351 1.646863
1114 3 0.0 28.315610 13.020671 0.651836
1115 2 0.0 16.554326 22.965283 26.716396
1116 3 0.0 15.785901 22.903014 26.144342
1117 3 0.0 17.177792 23.504339 26.224149
1118 2 0.0 4.429362 34.705931 21.639910
1119 3 0.0 4.802281 33.843095 21.444858
1120 3 0.0 3.676517 34.781902 21.049103
1121 2 0.0 30.039000 9.310822 22.955760
1122 3 0.0 30.978310 9.492341 23.035428
1123 3 0.0 29.943468 8.913501 22.087077
1124 1 0.0 26.397346 11.842577 21.518416
1125 2 0.0 24.867386 12.154173 21.986423
1126 2 0.0 26.687871 10.243336 21.640582
1127 2 0.0 27.434946 12.657945 22.475214
1128 2 0.0 26.599182 12.314854 19.971446
1129 3 0.0 25.073738 12.402801 21.082430
1130 3 0.0 25.973289 10.481575 21.045424
1131 3 0.0 26.816387 13.206541 21.987333
1132 3 0.0 25.720840 12.462841 20.329516
1133 2 0.0 9.396878 35.879312 26.985802
1134 3 0.0 8.733718 35.889851 27.679853
1135 3 0.0 10.195831 36.198873 27.411426
1136 1 0.0 34.859849 19.925024 2.557673
1137 2 0.0 35.972780 20.593199 1.571860
1138 2 0.0 34.851493 18.308231 2.350770
1139 2 0.0 33.387289 20.526053 2.200982
1140 2 0.0 35.227837 20.272614 4.107082
1141 3 0.0 36.114135 20.749774 2.508397
1142 3 0.0 35.688848 18.675500 2.643259
1143 3 0.0 34.036446 21.178386 2.474217
1144 2 0.0 36.321111 22.647150 9.966046
1145 3 0.0 36.516469 22.564490 9.029776
1146 3 0.0 35.838157 23.473600 10.039100
1147 2 0.0 13.876756 28.295916 18.320090
1148 3 0.0 14.724220 27.846257 18.354906
1149 3 0.0 13.343094 27.855518 18.985563
1150 2 0.0 10.768146 19.220955 14.923385
1151 3 0.0 10.626181 18.408786 15.415145
1152 3 0.0 10.911558 18.932768 14.018962
1153 2 0.0 36.036115 10.280067 17.904367
1154 3 0.0 35.492916 9.608577 18.323456
1155 3 0.0 36.202611 10.922441 18.598078
1156 2 0.0 16.672614 9.726285 13.338890
1157 3 0.0 16.471677 10.354155 14.064012
1158 3 0.0 15.882707 9.639407 12.765393
1159 3 0.0 16.882807 8.850643 13.725505
1160 1 0.0 1.179379 20.673087 13.687143
1161 2 0.0 0.301340 20.066940 12.454856
1162 2 0.0 0.179771 21.154691 14.881187
1163 2 0.0 2.048977 21.946851 13.159672
1164 2 0.0 2.187428 19.523869 14.252858
1165 3 0.0 0.924898 19.452785 12.849304
1166 3 0.0 0.124894 20.222783 14.657278
1167 3 0.0 2.234355 21.116761 12.714490
1168 3 0.0 1.629652 19.249861 13.521144
1169 2 0.0 10.913882 11.135996 4.607105
1170 3 0.0 9.950020 10.959020 4.614109
1171 3 0.0 11.378950 10.380754 5.023904
1172 3 0.0 11.092253 11.946324 5.128596
1173 2 0.0 6.032172 29.893024 31.405747
1174 3 0.0 5.509323 29.135528 31.069253
1175 3 0.0 5.551267 30.723900 31.208828
1176 3 0.0 6.898129 29.910446 30.947254
1177 2 0.0 0.294380 23.127567 11.538153
1178 3 0.0 0.787913 23.650125 12.174516
1179 3 0.0 36.205040 23.324917 11.726790
1180 1 0.0 14.023336 16.998136 24.924224
1181 2 0.0 13.826784 15.380038 24.918915
1182 2 0.0 13.143567 17.648367 26.132573
1183 2 0.0 13.524511 17.610736 23.498463
1184 2 0.0 15.598481 17.353401 25.146945
1185 3 0.0 14.730391 15.678560 25.045329
1186 3 0.0 13.810986 17.016984 26.410974
1187 3 0.0 14.240893 16.974516 23.438295
1188 3 0.0 15.392401 16.415925 25.130535
1189 1 0.0 7.124528 12.445101 24.638869
1190 2 0.0 5.884754 12.439173 25.697088
1191 2 0.0 6.874828 11.302998 23.503021
1192 2 0.0 8.514973 12.130547 25.429197
1193 2 0.0 7.223556 13.907686 23.926171
1194 3 0.0 6.015436 13.267580 25.229901
1195 3 0.0 6.196894 11.980895 23.552646
1196 3 0.0 8.047852 12.914811 25.726398
1197 2 0.0 26.222343 7.331827 9.596356
1198 3 0.0 25.962120 6.747673 10.312350
1199 3 0.0 25.674715 7.062857 8.855168
1200 2 0.0 28.056535 17.841367 19.399709
1201 3 0.0 28.357337 18.353269 20.154080
1202 3 0.0 27.486098 18.441377 18.913716
1203 2 0.0 18.339968 36.512841 23.115064
1204 3 0.0 19.043804 35.909303 23.363977
1205 3 0.0 18.609990 0.027353 22.261077
1206 2 0.0 0.837344 30.718920 13.623264
1207 3 0.0 1.200037 30.820867 12.740280
1208 3 0.0 1.599917 30.536276 14.177092
1209 2 0.0 32.108061 18.245890 20.038486
1210 3 0.0 31.726400 18.800893 19.354449
1211 3 0.0 32.887433 18.724694 20.329909
1212 1 0.0 4.366076 31.629769 35.197127
1213 2 0.0 3.339728 30.731359 36.089522
1214 2 0.0 5.186656 32.646337 36.171877
1215 2 0.0 3.521695 32.491289 34.100904
1216 2 0.0 5.416224 30.650093 34.426204
1217 3 0.0 3.996047 30.230781 35.599350
1218 3 0.0 5.305603 31.713710 36.365937
1219 3 0.0 3.426639 31.538733 34.028776
1220 2 0.0 33.147396 11.700108 16.196930
1221 3 0.0 33.268679 12.597282 15.877604
1222 3 0.0 32.231030 11.495316 15.997094
1223 2 0.0 15.761844 1.550112 20.306664
1224 3 0.0 14.884446 1.372224 20.653258
1225 3 0.0 16.321368 1.605372 21.084789
1226 2 0.0 6.731705 19.071338 13.588258
1227 3 0.0 7.591060 19.194838 13.997961
1228 3 0.0 6.134921 19.608994 14.113973
1229 2 0.0 30.798293 2.679473 7.512929
1230 3 0.0 30.893658 1.787179 7.853982
1231 3 0.0 31.655870 2.885097 7.133612
1232 2 0.0 10.680434 15.470450 18.126725
1233 3 0.0 10.448928 16.366751 17.805090
1234 3 0.0 10.008247 14.833792 17.805430
1235 3 0.0 10.673652 15.472617 19.106699
1236 2 0.0 21.866138 15.524834 16.177754
1237 3 0.0 22.195216 14.664472 15.907414
1238 3 0.0 21.945867 15.523287 17.134436
1239 2 0.0 33.897046 35.455306 15.664127
1240 3 0.0 33.403690 36.105316 16.169781
1241 3 0.0 33.907972 35.803898 14.769721
1242 1 0.0 12.265267 33.692469 21.090618
1243 2 0.0 11.767436 32.374455 21.910314
1244 2 0.0 13.242939 33.235434 19.869071
1245 2 0.0 13.079797 34.682679 22.097060
1246 2 0.0 10.970897 34.477310 20.486027
1247 3 0.0 11.064583 32.898122 21.518687
1248 3 0.0 12.353938 32.874831 19.833845
1249 3 0.0 12.169826 34.508094 22.348204
1250 2 0.0 4.764272 35.479836 33.471025
1251 3 0.0 5.490014 35.885073 32.990732
1252 3 0.0 4.147168 36.198669 33.626143
1253 2 0.0 7.828660 7.399687 24.681479
1254 3 0.0 7.596150 7.510372 25.606297
1255 3 0.0 7.688560 8.266189 24.292705
1256 2 0.0 20.670358 25.428516 26.750758
1257 3 0.0 19.987124 24.962437 27.238161
1258 3 0.0 20.768687 24.929003 25.936868
1259 1 0.0 32.693956 14.203811 4.451045
1260 2 0.0 32.749464 15.235508 3.190323
1261 2 0.0 32.178028 14.995855 5.778970
1262 2 0.0 34.182593 13.598360 4.723605
1263 2 0.0 31.665738 12.985521 4.111282
1264 3 0.0 32.163992 14.483674 3.073841
1265 3 0.0 31.561010 14.992018 5.043529
1266 3 0.0 33.823227 13.414899 3.852515
1267 3 0.0 31.759048 13.642946 3.417966
1268 2 0.0 30.258482 35.295768 34.810755
1269 3 0.0 30.778108 35.531102 34.038611
1270 3 0.0 29.368773 35.588741 34.600551
1271 2 0.0 1.609100 10.216518 0.276716
1272 3 0.0 0.988468 10.787872 0.734941
1273 3 0.0 2.264817 9.991726 0.940873
1274 2 0.0 22.212000 8.695189 4.786316
1275 3 0.0 22.798058 8.027200 5.149531
1276 3 0.0 22.795728 9.303735 4.327476
1277 2 0.0 12.528931 31.909257 17.761634
1278 3 0.0 12.206358 31.411125 18.516228
1279 3 0.0 12.236494 32.809030 17.924386
1280 2 0.0 12.596100 29.524611 11.940488
1281 3 0.0 13.107402 29.024698 11.299974
1282 3 0.0 13.121209 30.310882 12.106735
1283 2 0.0 13.121090 15.337936 17.005697
1284 3 0.0 13.165249 15.991079 16.276414
1285 3 0.0 13.118541 14.435159 16.624400
1286 3 0.0 12.289032 15.474607 17.505097
1287 2 0.0 32.666331 29.788233 25.210694
1288 3 0.0 33.437908 29.890642 24.648749
1289 3 0.0 32.632599 28.848567 25.404317
1290 2 0.0 25.767558 5.128598 14.383918
1291 3 0.0 25.156328 4.496703 13.998292
1292 3 0.0 26.632776 4.840302 14.084115
1293 2 0.0 26.951691 32.020196 0.433972
1294 3 0.0 27.247978 32.947016 0.317264
1295 3 0.0 26.863935 31.600965 36.383552
1296 3 0.0 26.076623 32.019204 0.875169
1297 1 0.0 2.020942 24.613205 27.426875
1298 2 0.0 1.592426 24.716554 25.857610
1299 2 0.0 3.492487 25.283095 27.633523
1300 2 0.0 2.069300 23.046724 27.874867
1301 2 0.0 0.929556 25.406449 28.341501
1302 3 0.0 1.000322 25.159433 26.469878
1303 3 0.0 2.821128 25.876808 27.289456
1304 3 0.0 1.215014 23.352990 27.561821
1305 2 0.0 35.442648 0.366509 31.079309
1306 3 0.0 34.917482 36.663079 31.679442
1307 3 0.0 35.142814 1.265520 31.232534
1308 2 0.0 14.890053 2.982258 32.606848
1309 3 0.0 14.432425 2.144371 32.707460
1310 3 0.0 15.810086 2.740106 32.478389
1311 2 0.0 2.544442 23.497291 33.550493
1312 3 0.0 1.613454 23.719060 33.625860
1313 3 0.0 2.984757 24.342670 33.436223
1314 2 0.0 35.503371 9.771264 14.431482
1315 3 0.0 35.076868 10.566297 14.759533
1316 3 0.0 35.204960 9.076491 15.022956
1317 2 0.0 2.135119 32.158670 20.324801
1318 3 0.0 2.261439 31.440848 19.700002
1319 3 0.0 2.351797 32.951067 19.828054
1320 2 0.0 20.068168 0.589434 27.042865
1321 3 0.0 20.580358 0.189470 26.336260
1322 3 0.0 19.164388 0.581465 26.719264
1323 2 0.0 8.218057 23.783762 13.607414
1324 3 0.0 8.212325 23.936035 14.575495
1325 3 0.0 9.101530 23.452299 13.342824
1326 3 0.0 8.047447 24.633896 13.150725
1327 2 0.0 3.772580 11.406649 36.107919
1328 3 0.0 4.126616 11.844294 0.054536
1329 3 0.0 3.138007 12.030871 35.748385
1330 2 0.0 7.605886 31.231090 17.916943
1331 3 0.0 7.102232 31.646752 17.213269
1332 3 0.0 7.468538 31.798687 18.678895
1333 2 0.0 10.698505 19.964195 0.189686
1334 3 0.0 11.299472 20.088841 0.927861
1335 3 0.0 10.152171 20.753572 0.188161
1336 1 0.0 8.388677 2.745134 15.010738
1337 2 0.0 9.556999 3.754660 15.533021
1338 2 0.0 7.356580 2.430254 16.232428
1339 2 0.0 9.063212 1.353068 14.496876
1340 2 0.0 7.577916 3.442553 13.780627
1341 3 0.0 9.027666 4.088749 14.805153
1342 3 0.0 7.426356 3.356178 15.988715
1343 3 0.0 9.352348 2.140538 14.030087
1344 2 0.0 23.477879 19.663742 25.482224
1345 3 0.0 23.279518 18.941878 26.083195
1346 3 0.0 23.849153 20.348728 26.043070
1347 2 0.0 16.642824 14.619147 34.902587
1348 3 0.0 16.977020 14.318516 35.750841
1349 3 0.0 15.952770 13.990251 34.679171
1350 2 0.0 0.372504 3.650290 19.579056
1351 3 0.0 36.608501 3.231696 20.205413
1352 3 0.0 36.805578 4.506234 19.404141
1353 2 0.0 33.433763 4.545240 6.601324
1354 3 0.0 32.769902 3.961647 6.226748
1355 3 0.0 33.008971 5.405646 6.630524
1356 2 0.0 2.647279 11.101351 3.923497
1357 3 0.0 2.014825 10.707117 3.318368
1358 3 0.0 2.109099 11.597776 4.544403
1359 2 0.0 25.126595 34.385008 13.799453
1360 3 0.0 24.599487 35.186985 13.823765
1361 3 0.0 25.016915 33.998375 14.671281
1362 1 0.0 18.145221 13.503301 29.630002
1363 2 0.0 17.707311 13.905098 31.147795
1364 2 0.0 17.222118 12.265508 29.107844
1365 2 0.0 19.712427 13.055415 29.617234
1366 2 0.0 17.939027 14.787185 28.647135
1367 3 0.0 17.616929 14.607793 30.499990
1368 3 0.0 16.738807 13.060767 29.343581
1369 3 0.0 19.549202 13.952203 29.918444
1370 3 0.0 17.703512 14.937393 29.565596
1371 2 0.0 34.540990 14.680723 13.009384
1372 3 0.0 34.016228 14.912661 12.239689
1373 3 0.0 35.374379 15.139205 12.879553
1374 2 0.0 21.202245 15.382254 19.426594
1375 3 0.0 21.243909 15.099264 18.510198
1376 3 0.0 21.313178 14.574418 19.933245
1377 2 0.0 2.654711 14.523540 35.438274
1378 3 0.0 2.170649 14.297375 36.235854
1379 3 0.0 3.578231 14.480355 35.696822
1380 2 0.0 19.379834 17.066766 22.811691
1381 3 0.0 18.512050 17.257534 22.448154
1382 3 0.0 19.765726 17.929727 22.978980
1383 2 0.0 20.140136 24.310737 28.855316
1384 3 0.0 19.501784 23.883024 29.430788
1385 3 0.0 20.219759 23.719823 28.102933
1386 2 0.0 30.176909 31.424626 21.283573
1387 3 0.0 30.490197 31.997210 21.987561
1388 3 0.0 30.591418 30.576960 21.460335
1389 2 0.0 11.761041 23.866820 31.093993
1390 3 0.0 11.411338 24.760694 31.111206
1391 3 0.0 12.483645 23.878855 31.725893
1392 2 0.0 21.015045 4.071098 7.106181
1393 3 0.0 20.369046 3.517533 6.661377
1394 3 0.0 20.591527 4.320002 7.930971
1395 2 0.0 2.540486 1.429868 31.590519
1396 3 0.0 1.828043 1.670407 32.187315
1397 3 0.0 2.690082 0.496524 31.758119
1398 2 0.0 21.465316 22.268517 29.776276
1399 3 0.0 21.551457 22.303981 30.731745
1400 3 0.0 21.723077 21.373303 29.544435
1401 1 0.0 22.504134 2.862495 13.817746
1402 2 0.0 22.066783 2.617613 15.368765
1403 2 0.0 22.296874 1.485277 12.970861
1404 2 0.0 24.071537 3.305963 13.758733
1405 2 0.0 21.581340 4.041127 13.172627
1406 3 0.0 21.570661 3.299640 14.910178
1407 3 0.0 21.500182 1.836907 13.374888
1408 3 0.0 23.502947 3.891611 14.264027
1409 3 0.0 21.389271 3.831549 14.089571
1410 2 0.0 9.123695 5.081019 33.335455
1411 3 0.0 9.433119 4.180019 33.216896
1412 3 0.0 8.911110 5.381147 32.448702
1413 1 0.0 36.722143 1.002380 11.441794
1414 2 0.0 1.320406 0.591259 10.774696
1415 2 0.0 36.078926 2.254322 10.619715
1416 2 0.0 0.121379 1.434221 12.996591
1417 2 0.0 35.705813 36.560742 11.376174
1418 3 0.0 0.658983 36.726502 10.777695
1419 3 0.0 36.230050 1.461955 10.099219
1420 3 0.0 0.384773 0.536445 12.781602
1421 3 0.0 36.576180 36.404580 11.002443
1422 2 0.0 20.662317 1.541117 24.362430
1423 3 0.0 20.240002 2.375396 24.145108
1424 3 0.0 20.341773 1.331186 25.242647
1425 2 0.0 4.773190 6.400644 6.960959
1426 3 0.0 4.898505 7.178090 6.411893
1427 3 0.0 5.027766 6.684603 7.841958
1428 2 0.0 1.870327 23.871608 20.188333
1429 3 0.0 2.785142 23.805201 20.471713
1430 3 0.0 1.905558 23.766977 19.234703
1431 2 0.0 29.348426 32.200637 0.061198
1432 3 0.0 30.008710 31.538042 0.277049
1433 3 0.0 28.631493 32.035864 0.678010
1434 2 0.0 25.432359 3.610697 32.624410
1435 3 0.0 25.695408 3.468176 31.712219
1436 3 0.0 24.665937 4.185920 32.566828
1437 1 0.0 9.601451 16.540580 36.128171
1438 2 0.0 8.461686 15.522290 35.561672
1439 2 0.0 9.116399 18.079969 35.900341
1440 2 0.0 11.000451 16.288059 35.330716
1441 2 0.0 9.827270 16.272004 0.888930
1442 3 0.0 8.658132 15.431520 36.496964
1443 3 0.0 8.536618 17.549264 36.451528
1444 3 0.0 10.662832 15.527035 35.808687
1445 3 0.0 9.168395 15.711657 0.472401
1446 1 0.0 9.449856 3.757388 25.982557
1447 2 0.0 7.839255 3.787250 25.733613
1448 2 0.0 10.089735 2.452905 25.243788
1449 2 0.0 9.750958 3.677885 27.582531
1450 2 0.0 10.119476 5.111510 25.370297
1451 3 0.0 8.315299 4.552097 25.401962
1452 3 0.0 9.639239 3.068787 24.661256
1453 3 0.0 9.256918 4.451217 27.300605
1454 3 0.0 9.167324 5.046918 25.266205
1455 2 0.0 29.119736 36.203246 18.682163
1456 3 0.0 29.838083 36.283453 18.050384
1457 3 0.0 28.458574 36.828066 18.375462
1458 1 0.0 3.260342 30.586001 3.022858
1459 2 0.0 2.015683 29.846771 3.772034
1460 2 0.0 2.939499 32.177541 2.878087
1461 2 0.0 3.466455 29.936401 1.542170
1462 2 0.0 4.619729 30.383289 3.899142
1463 3 0.0 2.860218 29.776496 4.223057
1464 3 0.0 2.963215 31.848822 3.779742
1465 3 0.0 3.557902 29.319621 2.272116
1466 3 0.0 3.833243 29.976971 4.270552
1467 2 0.0 21.055526 27.170373 30.809140
1468 3 0.0 20.194895 27.067067 31.221745
1469 3 0.0 21.662652 27.284226 31.544012
1470 2 0.0 26.663194 5.931659 29.800048
1471 3 0.0 26.562879 4.979675 29.872599
1472 3 0.0 26.904139 6.216399 30.684621
1473 1 0.0 22.589359 35.914502 8.798517
1474 2 0.0 21.384184 36.424514 7.826744
1475 2 0.0 22.283649 36.376509 10.331485
1476 2 0.0 23.998729 36.567912 8.304928
1477 2 0.0 22.690873 34.289071 8.730910
1478 3 0.0 21.514191 35.473572 7.846955
1479 3 0.0 21.619512 35.804392 9.940071
1480 3 0.0 23.555036 36.020397 7.653035
1481 3 0.0 22.002447 34.675645 8.184805
1482 1 0.0 16.739509 21.204141 10.907318
1483 2 0.0 15.605314 22.281195 11.366072
1484 2 0.0 16.272195 20.478777 9.524435
1485 2 0.0 16.925716 20.081064 12.073906
1486 2 0.0 18.154811 21.975525 10.664860
1487 3 0.0 16.474857 22.653096 11.201193
1488 3 0.0 16.371280 21.432048 9.469146
1489 3 0.0 17.108800 20.983216 12.346308
1490 1 0.0 32.193310 8.723980 6.087860
1491 2 0.0 33.413603 9.554459 5.396420
1492 2 0.0 32.732899 7.990146 7.439612
1493 2 0.0 31.640228 7.601027 5.043840
1494 2 0.0 30.986511 9.750286 6.471570
1495 3 0.0 32.656923 10.085525 5.655273
1496 3 0.0 32.809894 8.947054 7.439133
1497 3 0.0 31.576778 8.507920 4.735426
1498 3 0.0 31.750018 10.158697 6.057013
1499 2 0.0 31.996900 0.288472 12.976279
1500 3 0.0 32.381381 1.013867 13.473850
1501 3 0.0 31.048967 0.410766 13.066095
1502 1 0.0 18.227345 2.132501 4.401815
1503 2 0.0 19.299445 2.179777 3.174923
1504 2 0.0 17.886499 3.651669 4.884362
1505 2 0.0 18.864113 1.296596 5.647885
1506 2 0.0 16.859323 1.401961 3.900092
1507 3 0.0 18.460407 1.763333 2.964710
1508 3 0.0 17.675151 3.460099 3.967720
1509 3 0.0 18.778421 0.802322 4.829381
1510 2 0.0 11.523959 26.793810 5.053819
1511 3 0.0 11.745196 25.973193 5.500183
1512 3 0.0 12.181118 26.874430 4.358663
1513 2 0.0 15.239597 17.449247 15.949939
1514 3 0.0 15.794351 17.252111 16.708217
1515 3 0.0 14.344265 17.432625 16.295921
1516 2 0.0 27.573975 23.291578 8.425879
1517 3 0.0 27.154260 22.482944 8.728450
1518 3 0.0 27.054207 23.562640 7.665638
1519 2 0.0 2.598158 26.280612 22.763829
1520 3 0.0 3.178579 26.317792 23.527589
1521 3 0.0 1.775760 25.920509 23.103809
1522 2 0.0 33.371542 13.698191 18.127459
1523 3 0.0 32.708488 13.472341 18.783927
1524 3 0.0 33.921998 14.356445 18.557926
1525 1 0.0 4.621090 11.665676 12.342117
1526 2 0.0 5.780747 10.932178 11.462300
1527 2 0.0 4.367117 10.824676 13.715112
1528 2 0.0 3.240052 11.725700 11.478386
1529 2 0.0 5.096444 13.180150 12.712668
1530 3 0.0 5.980076 11.833751 11.725042
1531 3 0.0 5.260144 11.158734 13.603264
1532 3 0.0 3.988213 12.175569 11.079045
1533 3 0.0 5.724380 12.673726 12.192253
1534 2 0.0 25.543807 29.164094 12.949628
1535 3 0.0 25.042733 28.350137 12.860191
1536 3 0.0 24.949365 29.763712 13.406464
1537 2 0.0 21.760786 28.663134 24.034885
1538 3 0.0 21.835233 29.116446 23.191934
1539 3 0.0 22.088315 29.295937 24.678224
1540 2 0.0 18.249996 11.311144 22.743428
1541 3 0.0 17.996733 12.000911 22.125625
1542 3 0.0 18.274267 11.749657 23.597077
1543 2 0.0 11.580826 12.349832 34.037176
1544 3 0.0 11.561957 12.010841 34.935134
1545 3 0.0 11.523876 13.302779 34.138410
1546 2 0.0 34.948266 3.992071 4.669929
1547 3 0.0 34.788249 3.148149 5.098637
1548 3 0.0 34.671322 4.646348 5.315547
1549 2 0.0 17.092157 25.499583 17.304545
1550 3 0.0 17.901177 25.923006 17.008234
1551 3 0.0 17.371849 24.633798 17.610793
1552 2 0.0 29.169307 21.034032 28.325025
1553 3 0.0 29.652222 20.228080 28.522087
1554 3 0.0 29.217345 21.115933 27.369732
1555 2 0.0 17.064089 9.852452 26.296187
1556 3 0.0 17.839971 9.298739 26.182132
1557 3 0.0 16.325621 9.239428 26.274594
1558 1 0.0 10.761190 8.873131 18.045141
1559 2 0.0 9.143301 8.778335 18.219357
1560 2 0.0 11.476598 8.671871 19.495860
1561 2 0.0 11.157993 10.334402 17.441706
1562 2 0.0 11.266866 7.707915 17.023641
1563 3 0.0 9.526966 8.124347 17.630544
1564 3 0.0 10.938867 7.932640 19.202630
1565 3 0.0 10.579311 9.808861 16.884450
1566 2 0.0 23.396469 14.585856 14.881553
1567 3 0.0 24.348854 14.693913 14.827821
1568 3 0.0 23.052285 15.125169 14.165816
1569 2 0.0 2.758161 1.175621 6.637581
1570 3 0.0 1.988628 0.690772 6.944731
1571 3 0.0 2.709601 1.122800 5.680266
1572 2 0.0 13.283135 23.272683 25.046166
1573 3 0.0 12.454041 23.141764 25.512067
1574 3 0.0 13.440912 22.439166 24.596773
1575 2 0.0 21.689095 33.986775 34.165881
1576 3 0.0 21.846926 33.321833 34.840078
1577 3 0.0 22.249977 34.723727 34.418691
1578 1 0.0 4.306605 29.147120 13.475748
1579 2 0.0 4.365825 28.686442 11.913324
1580 2 0.0 2.781910 29.578979 13.857459
1581 2 0.0 5.304411 30.415203 13.706508
1582 2 0.0 4.774275 27.907857 14.425701
1583 3 0.0 4.627034 28.012553 12.545180
1584 3 0.0 2.884238 28.672056 13.559767
1585 3 0.0 5.730963 29.615762 13.389415
1586 3 0.0 4.779656 27.721627 13.483953
1587 2 0.0 23.798666 1.426038 2.395288
1588 3 0.0 24.537676 1.291731 1.797437
1589 3 0.0 24.205642 1.666774 3.230762
1590 2 0.0 36.675762 29.918758 19.794433
1591 3 0.0 0.110363 30.642464 19.222337
1592 3 0.0 36.548600 29.175996 19.199678
1593 1 0.0 13.707152 8.476434 2.325107
1594 2 0.0 12.335679 8.613739 3.195227
1595 2 0.0 14.491057 9.905536 2.317348
1596 2 0.0 13.339699 8.049975 0.795398
1597 2 0.0 14.662173 7.336487 2.992456
1598 3 0.0 12.958912 7.960088 3.520682
1599 3 0.0 14.356038 9.521572 3.186797
1600 3 0.0 13.056693 7.427509 1.469226
1601 3 0.0 13.828228 7.482831 3.444914
1602 2 0.0 0.603742 4.424844 0.396694
1603 3 0.0 0.136803 5.210261 0.102264
1604 3 0.0 1.496183 4.535225 0.060590
1605 2 0.0 7.690117 16.236182 33.037493
1606 3 0.0 8.500858 16.554020 32.633416
1607 3 0.0 7.743372 15.280451 32.964412
1608 2 0.0 35.001977 1.166885 3.311266
1609 3 0.0 35.558932 0.665199 2.711506
1610 3 0.0 34.501089 0.501155 3.788251
1611 2 0.0 29.575175 26.705744 15.488751
1612 3 0.0 29.948061 26.132718 14.814810
1613 3 0.0 30.329883 26.983446 16.013057
1614 2 0.0 25.678298 25.908219 26.707955
1615 3 0.0 26.439110 25.975376 26.126358
1616 3 0.0 25.692724 25.000211 27.019265
1617 2 0.0 6.303381 22.452364 4.033508
1618 3 0.0 6.262270 21.495455 3.968431
1619 3 0.0 6.661221 22.618944 4.908609
1620 1 0.0 24.317907 6.754664 16.411132
1621 2 0.0 24.031389 6.412439 14.843430
1622 2 0.0 25.843766 6.325234 16.790929
1623 2 0.0 23.271497 5.927379 17.347896
1624 2 0.0 24.124978 8.353603 16.662274
1625 3 0.0 23.939405 7.338284 15.079968
1626 3 0.0 25.768447 6.981534 16.094367
1627 3 0.0 22.865557 6.532542 16.722923
1628 3 0.0 23.974375 8.063618 15.759596
1629 1 0.0 23.924777 15.867065 2.031062
1630 2 0.0 24.033396 15.579673 0.430278
1631 2 0.0 23.414245 17.395670 2.275237
1632 2 0.0 25.388533 15.666575 2.719627
1633 2 0.0 22.862934 14.826340 2.699105
1634 3 0.0 23.425691 15.007758 0.904838
1635 3 0.0 22.808952 16.840226 1.778545
1636 3 0.0 25.037001 14.888886 2.280054
1637 3 0.0 22.988337 14.726268 1.752606
1638 2 0.0 18.515842 22.260389 1.014996
1639 3 0.0 17.909395 22.479849 0.303899
1640 3 0.0 18.171964 22.730305 1.778231
1641 2 0.0 27.223945 19.823039 9.228086
1642 3 0.0 27.263867 18.922912 9.559412
1643 3 0.0 26.729268 20.303606 9.895881
1644 2 0.0 28.523095 5.597089 31.638546
1645 3 0.0 28.234415 4.691169 31.505985
1646 3 0.0 29.202191 5.733023 30.973752
1647 2 0.0 3.524734 35.084944 23.941648
1648 3 0.0 2.641476 35.014737 24.311142
1649 3 0.0 3.654103 34.259591 23.468725
1650 2 0.0 24.841987 1.192362 28.032554
1651 3 0.0 24.579589 0.370014 27.612445
1652 3 0.0 24.100800 1.420833 28.598276
1653 2 0.0 22.949964 3.079726 30.594301
1654 3 0.0 23.271546 3.395835 31.464393
1655 3 0.0 23.719096 2.812765 30.048804
1656 3 0.0 22.479477 3.811994 30.143938
1657 2 0.0 24.924823 32.609836 21.723332
1658 3 0.0 24.966568 31.654817 21.635029
1659 3 0.0 25.358878 32.943661 20.934816
1660 1 0.0 17.869075 22.970236 14.771522
1661 2 0.0 18.932457 21.892791 14.167179
1662 2 0.0 16.687634 22.179133 15.568552
1663 2 0.0 17.217828 23.833552 13.551906
1664 2 0.0 18.638378 23.975466 15.798451
1665 3 0.0 19.304002 22.526754 14.784953
1666 3 0.0 17.573366 22.036566 15.910246
1667 3 0.0 18.171707 23.903632 13.634395
1668 3 0.0 19.194117 23.304965 15.394493
1669 2 0.0 28.689286 1.866012 10.881021
1670 3 0.0 29.551887 2.145792 10.509482
1671 3 0.0 28.800122 1.679339 11.836672
1672 3 0.0 28.398797 1.046705 10.428525
1673 2 0.0 25.524733 28.847480 9.693913
1674 3 0.0 25.764700 27.962077 9.410934
1675 3 0.0 24.614256 28.952933 9.408411
1676 2 0.0 19.650938 33.497383 28.005910
1677 3 0.0 20.211002 34.229889 27.738769
1678 3 0.0 20.263801 32.825551 28.313547
1679 1 0.0 5.550585 4.724034 33.587493
1680 2 0.0 6.977844 4.764175 34.373763
1681 2 0.0 5.798842 4.982039 31.997304
1682 2 0.0 4.571131 5.884523 34.179806
1683 2 0.0 4.854523 3.265397 33.799100
1684 3 0.0 6.497865 3.935945 34.446243
1685 3 0.0 6.244723 4.212113 32.357865
1686 3 0.0 4.859210 5.230595 34.820891
1687 3 0.0 5.704466 3.375912 34.231515
1688 2 0.0 3.197149 5.705656 20.198512
1689 3 0.0 2.923240 5.009560 19.596827
1690 3 0.0 3.310390 5.263174 21.042897
1691 2 0.0 3.248504 34.861499 4.071075
1692 3 0.0 2.882082 34.425435 3.298298
1693 3 0.0 3.824924 35.540794 3.713447
1694 2 0.0 19.825712 16.299766 15.019942
1695 3 0.0 20.744042 16.280153 14.740863
1696 3 0.0 19.523353 15.394507 14.916572
1697 2 0.0 1.369573 2.242644 29.414560
1698 3 0.0 0.826455 2.740289 30.030167
1699 3 0.0 1.222248 2.667048 28.566164
1700 1 0.0 34.267734 20.371500 28.294921
1701 2 0.0 35.324492 21.604583 28.435166
1702 2 0.0 32.775243 20.964140 28.015370
1703 2 0.0 34.258295 19.504385 29.675110
1704 2 0.0 34.712905 19.412892 27.054037
1705 3 0.0 35.512927 20.987648 27.724192
1706 3 0.0 33.433734 21.195709 27.356306
1707 3 0.0 35.107407 19.548327 29.229378
1708 3 0.0 35.284401 20.168702 27.208121
1709 1 0.0 32.698566 27.939721 30.139576
1710 2 0.0 32.874750 26.319456 30.164095
1711 2 0.0 32.574376 28.449462 28.596319
1712 2 0.0 33.994447 28.637826 30.839750
1713 2 0.0 31.350693 28.352141 30.958140
1714 3 0.0 32.101041 26.650467 30.626053
1715 3 0.0 31.895055 27.831152 28.875275
1716 3 0.0 33.497652 28.043727 31.407061
1717 2 0.0 22.429058 27.281795 2.663217
1718 3 0.0 21.809184 27.904542 3.097202
1719 3 0.0 23.275369 27.279361 3.157335
1720 3 0.0 22.596585 27.586555 1.746999
1721 2 0.0 16.324223 8.522153 9.558149
1722 3 0.0 15.820851 9.062559 8.944815
1723 3 0.0 15.949327 7.642997 9.467941
1724 2 0.0 28.402121 27.426073 10.441397
1725 3 0.0 28.137255 27.592285 9.533752
1726 3 0.0 29.246072 26.974615 10.367018
1727 2 0.0 4.278576 8.620892 18.809001
1728 3 0.0 5.061835 8.065820 18.809307
1729 3 0.0 3.945554 8.567736 19.707817
1730 2 0.0 28.752051 27.130532 2.198069
1731 3 0.0 29.369340 27.610065 1.640752
1732 3 0.0 28.438607 27.783927 2.827694
1733 2 0.0 15.917260 17.239289 2.850555
1734 3 0.0 16.286151 17.812631 3.526423
1735 3 0.0 15.666895 17.834641 2.140291
1736 2 0.0 33.685113 9.854174 31.298362
1737 3 0.0 32.881290 9.526531 30.888338
1738 3 0.0 34.105612 9.071838 31.662685
1739 1 0.0 26.525251 23.983189 15.338244
1740 2 0.0 28.037920 24.225113 14.781284
1741 2 0.0 25.797522 22.826674 14.449547
1742 2 0.0 25.676322 25.370065 15.225136
1743 2 0.0 26.589241 23.510904 16.897010
1744 3 0.0 27.983108 23.943166 15.697308
1745 3 0.0 26.596619 22.547603 14.902498
1746 3 0.0 26.459840 25.417904 15.777775
1747 2 0.0 5.248939 28.144625 21.960597
1748 3 0.0 5.855580 27.608635 22.512956
1749 3 0.0 5.498775 29.089048 22.038371
1750 3 0.0 4.333290 28.029666 22.290402
1751 2 0.0 27.372742 24.342663 3.103989
1752 3 0.0 28.069513 24.320478 3.764003
1753 3 0.0 27.834004 24.275967 2.264710
1754 2 0.0 9.583733 34.406108 36.780838
1755 3 0.0 9.935783 35.257092 0.284905
1756 3 0.0 8.914578 34.589230 36.088668
1757 3 0.0 9.154046 33.926670 0.688669
1758 2 0.0 5.268066 14.753960 26.747845
1759 3 0.0 6.055310 14.232952 26.922195
1760 3 0.0 5.586700 15.657216 26.683028
1761 2 0.0 4.840910 1.633998 17.308564
1762 3 0.0 5.236859 2.178091 16.623883
1763 3 0.0 5.582653 1.344203 17.844695
1764 2 0.0 28.241127 8.425277 23.206029
1765 3 0.0 28.445761 7.519126 22.963925
1766 3 0.0 27.587901 8.705191 22.560627
1767 2 0.0 9.397473 20.663789 3.472221
1768 3 0.0 10.343640 20.577030 3.609486
1769 3 0.0 9.263890 21.598845 3.300682
1770 2 0.0 9.417014 27.997495 3.407383
1771 3 0.0 9.766859 27.297442 2.851384
1772 3 0.0 10.193321 28.404783 3.798617
1773 2 0.0 35.238907 6.592844 9.617075
1774 3 0.0 34.292650 6.487405 9.494276
1775 3 0.0 35.506398 7.195905 8.919676
1776 1 0.0 33.738775 2.942811 33.183649
1777 2 0.0 33.016456 1.501241 32.944842
1778 2 0.0 34.896217 3.163780 32.057415
1779 2 0.0 34.411846 2.974041 34.667866
1780 2 0.0 32.630582 4.132183 33.064472
1781 3 0.0 32.432519 2.261371 32.891742
1782 3 0.0 34.008631 3.049398 31.709983
1783 3 0.0 33.462004 2.835271 34.655962
1784 2 0.0 21.476219 21.227639 13.608883
1785 3 0.0 21.705354 20.692581 12.845463
1786 3 0.0 22.213807 21.834072 13.707900
1787 2 0.0 23.541441 35.056153 27.241339
1788 3 0.0 23.411035 35.947196 27.573961
1789 3 0.0 22.669367 34.776774 26.953184
1790 2 0.0 27.598288 35.508485 21.228630
1791 3 0.0 28.205886 36.078726 21.705337
1792 3 0.0 27.352577 34.833062 21.865049
1793 2 0.0 13.530747 7.965494 32.992258
1794 3 0.0 13.798297 7.633894 32.131992
1795 3 0.0 14.025424 7.433426 33.619792
1796 1 0.0 15.212220 12.863677 7.255608
1797 2 0.0 14.646924 11.758194 6.199556
1798 2 0.0 16.762953 12.521119 7.622733
1799 2 0.0 14.311668 12.827870 8.613777
1800 2 0.0 15.127336 14.347527 6.586366
1801 3 0.0 14.632889 12.664817 5.884220
1802 3 0.0 16.594170 12.691303 6.693136
1803 3 0.0 13.827814 13.037482 7.811562
1804 2 0.0 11.181932 5.502445 13.117601
1805 3 0.0 11.286611 6.351825 12.682633
1806 3 0.0 10.614314 4.999109 12.529330
1807 2 0.0 23.163105 10.479865 17.167551
1808 3 0.0 22.326867 10.878843 17.418794
1809 3 0.0 23.758933 11.223397 17.050291
1810 2 0.0 24.785033 32.765167 33.471269
1811 3 0.0 24.701713 31.982992 32.920942
1812 3 0.0 24.850053 32.423968 34.366230
1813 2 0.0 36.134325 31.257329 4.654346
1814 3 0.0 36.342408 32.013856 4.101201
1815 3 0.0 35.680078 31.631428 5.412837
1816 2 0.0 31.584293 4.071567 1.384183
1817 3 0.0 32.413477 4.056183 0.900636
1818 3 0.0 31.816854 3.783699 2.269986
1819 2 0.0 6.610209 3.514144 11.555934
1820 3 0.0 6.639920 4.258964 10.950987
1821 3 0.0 7.482085 3.495108 11.957270
1822 2 0.0 31.823332 6.800044 34.147255
1823 3 0.0 32.705003 6.425202 34.086027
1824 3 0.0 31.261280 6.056768 34.377990
1825 2 0.0 12.260002 3.379417 34.985861
1826 3 0.0 12.342616 4.278188 34.658774
1827 3 0.0 11.483245 3.398911 35.549660
1828 2 0.0 15.969016 10.653713 18.039242
1829 3 0.0 16.499747 11.283892 18.569903
1830 3 0.0 15.275656 11.149915 17.556090
1831 3 0.0 15.539031 10.012739 18.643117
1832 2 0.0 16.273721 29.920534 26.436684
1833 3 0.0 16.928476 30.227229 27.068218
1834 3 0.0 15.621125 30.623929 26.405808
1835 1 0.0 34.518259 35.194992 5.545243
1836 2 0.0 33.130503 35.902396 5.065022
1837 2 0.0 35.199629 36.083745 6.729622
1838 2 0.0 35.543356 35.096333 4.281779
1839 2 0.0 34.199548 33.697495 6.104551
1840 3 0.0 33.033586 35.012004 5.410579
1841 3 0.0 34.321082 35.750663 6.926629
1842 3 0.0 34.708989 34.636337 4.164157
1843 3 0.0 33.433044 34.188123 5.799009
1844 2 0.0 25.334441 3.662470 0.838132
1845 3 0.0 25.595039 2.915018 1.415891
1846 3 0.0 25.446684 3.395021 36.733062
1847 3 0.0 25.919749 4.426431 1.023005
1848 1 0.0 19.489219 6.559780 32.310809
1849 2 0.0 19.361422 4.936289 32.380393
1850 2 0.0 19.963878 7.130132 33.762119
1851 2 0.0 18.042850 7.202441 31.921062
1852 2 0.0 20.588726 6.970260 31.179664
1853 3 0.0 19.991605 5.266395 31.735801
1854 3 0.0 20.575026 6.516687 33.347651
1855 3 0.0 18.407083 6.598291 31.269958
1856 1 0.0 35.793387 15.737835 28.583536
1857 2 0.0 36.809226 14.687050 29.305217
1858 2 0.0 36.468759 16.287120 27.205473
1859 2 0.0 35.506522 16.991311 29.585238
1860 2 0.0 34.389042 14.985859 28.238217
1861 3 0.0 35.953009 14.324557 29.066278
1862 3 0.0 36.335612 15.337079 27.241426
1863 3 0.0 35.249695 16.131781 29.927069
1864 2 0.0 4.428643 29.763568 27.912303
1865 3 0.0 5.233356 29.204585 27.892949
1866 3 0.0 4.623436 30.616845 27.471424
1867 3 0.0 4.183747 29.936297 28.845357
1868 1 0.0 29.579530 14.675930 28.439025
1869 2 0.0 31.001770 13.982634 28.830782
1870 2 0.0 28.445150 14.240124 29.525374
1871 2 0.0 29.126152 14.183479 26.952808
1872 2 0.0 29.745049 16.297485 28.447136
1873 3 0.0 31.009881 14.942412 28.811796
1874 3 0.0 29.198262 14.709646 29.891393
1875 3 0.0 29.966796 14.645721 26.988168
1876 2 0.0 8.972329 27.682609 33.608088
1877 3 0.0 9.277541 26.772847 33.635986
1878 3 0.0 9.379865 28.049142 32.819945
1879 2 0.0 15.386775 5.788427 27.618751
1880 3 0.0 14.783926 6.224258 27.011936
1881 3 0.0 15.117866 6.095899 28.487514
1882 2 0.0 35.503451 32.094510 11.884391
1883 3 0.0 34.985133 32.201236 12.685363
1884 3 0.0 36.412213 32.047543 12.190243
1885 2 0.0 9.633376 30.658834 21.144723
1886 3 0.0 8.693319 30.571476 20.970766
1887 3 0.0 10.047679 30.028934 20.550433
1888 2 0.0 3.283836 4.382818 8.451647
1889 3 0.0 2.439607 4.318934 7.999103
1890 3 0.0 3.875838 4.770749 7.803077
1891 1 0.0 20.172008 25.640395 8.061506
1892 2 0.0 18.773073 26.469514 8.173050
1893 2 0.0 19.870761 24.139147 7.502576
1894 2 0.0 20.864853 25.543176 9.533720
1895 2 0.0 21.179346 26.409743 7.036677
1896 3 0.0 19.427579 26.855184 7.586125
1897 3 0.0 19.610336 24.851167 6.913674
1898 3 0.0 20.732201 26.435661 9.205887
1899 3 0.0 20.326705 26.832850 7.161509
1900 2 0.0 25.724727 27.331405 30.833620
1901 3 0.0 24.829694 27.077928 31.070821
1902 3 0.0 25.624887 28.172294 30.381362
1903 1 0.0 17.047959 34.852975 1.451483
1904 2 0.0 17.968216 35.962009 2.213109
1905 2 0.0 16.725042 35.362323 36.768179
1906 2 0.0 15.650887 34.653524 2.267147
1907 2 0.0 17.847693 33.434045 1.388523
1908 3 0.0 18.365603 35.091926 2.131624
1909 3 0.0 17.657318 35.252342 0.138067
1910 3 0.0 16.445098 34.452438 2.767539
1911 2 0.0 11.577325 25.672587 9.164755
1912 3 0.0 10.736697 25.811490 8.722431
1913 3 0.0 11.865446 26.553164 9.416095
1914 1 0.0 6.849847 33.275599 27.151905
1915 2 0.0 6.741078 32.488069 25.728927
1916 2 0.0 5.490894 34.141045 27.399190
1917 2 0.0 8.134546 34.278346 27.121128
1918 2 0.0 7.032871 32.194936 28.358375
1919 3 0.0 6.851244 31.923644 26.497620
1920 3 0.0 5.358263 33.194596 27.308398
1921 3 0.0 8.341712 33.349545 26.994595
1922 3 0.0 6.960275 31.814112 27.480137
1923 2 0.0 2.238062 17.022162 10.113666
1924 3 0.0 1.866146 16.334180 9.556926
1925 3 0.0 1.474553 17.477032 10.476637
1926 2 0.0 23.640430 28.084462 36.028348
1927 3 0.0 24.580420 28.277021 36.059012
1928 3 0.0 23.573426 27.298789 35.480782
1929 2 0.0 21.673414 22.347007 26.430450
1930 3 0.0 21.355363 22.347135 25.524667
1931 3 0.0 21.614779 23.264661 26.706265
1932 1 0.0 10.927289 14.883531 11.172014
1933 2 0.0 11.892523 15.992083 10.467504
1934 2 0.0 10.571757 15.358944 12.690065
1935 2 0.0 11.694488 13.446120 11.218451
1936 2 0.0 9.550387 14.736975 10.312036
1937 3 0.0 11.054889 15.842391 10.023024
1938 3 0.0 10.292991 15.964690 11.999441
1939 3 0.0 11.560030 13.806006 10.338677
1940 3 0.0 10.179729 15.373409 9.964932
1941 2 0.0 18.691811 17.991527 17.314631
1942 3 0.0 19.241522 18.612395 16.830956
1943 3 0.0 18.164627 18.541319 17.898931
1944 2 0.0 20.051622 9.504656 2.505975
1945 3 0.0 20.330804 8.627565 2.233267
1946 3 0.0 19.526790 9.829635 1.770761
1947 1 0.0 3.654659 20.556271 28.536307
1948 2 0.0 5.202951 20.280934 28.107491
1949 2 0.0 3.605908 21.715261 29.681412
1950 2 0.0 3.001430 19.183573 29.124431
1951 2 0.0 2.808349 21.045316 27.231894
1952 3 0.0 4.630623 20.574381 27.394799
1953 3 0.0 3.997072 21.985221 28.847319
1954 3 0.0 3.314899 19.128128 28.218747
1955 3 0.0 3.735858 20.860000 27.067624
1956 1 0.0 23.329666 19.817524 10.256440
1957 2 0.0 22.259097 20.207215 9.090713
1958 2 0.0 22.765449 18.548808 11.110208
1959 2 0.0 23.538041 21.092109 11.250881
1960 2 0.0 24.756079 19.421963 9.573960
1961 3 0.0 23.131100 19.959812 8.774482
1962 3 0.0 22.894390 18.382413 10.173572
1963 3 0.0 23.766287 21.252612 10.332327
1964 3 0.0 24.064120 19.666396 8.955052
1965 2 0.0 21.886673 13.740009 26.199230
1966 3 0.0 22.574486 14.186331 26.698541
1967 3 0.0 21.312330 14.446872 25.895793
1968 1 0.0 28.324370 35.085629 8.118319
1969 2 0.0 28.852210 35.349842 6.598951
1970 2 0.0 26.927788 35.891770 8.356216
1971 2 0.0 29.442890 35.611121 9.181178
1972 2 0.0 28.074592 33.489784 8.336928
1973 3 0.0 28.679028 34.430444 6.814162
1974 3 0.0 26.905707 35.241475 7.650363
1975 3 0.0 29.744083 34.924753 8.581360
1976 3 0.0 28.388464 33.735417 7.463573
1977 2 0.0 23.182190 15.601392 23.797090
1978 3 0.0 23.910140 15.381599 24.383076
1979 3 0.0 22.461854 15.837429 24.386160
1980 2 0.0 12.734050 27.944349 26.625649
1981 3 0.0 11.998015 28.523281 26.414247
1982 3 0.0 12.366072 27.059092 26.575520
1983 2 0.0 26.755049 1.060957 26.518279
1984 3 0.0 27.474694 0.451396 26.338987
1985 3 0.0 27.183050 1.836413 26.888528
1986 1 0.0 29.678052 20.393957 34.853130
1987 2 0.0 30.422269 20.303193 33.405787
1988 2 0.0 28.096120 20.044479 34.673527
1989 2 0.0 29.836829 21.901566 35.452132
1990 2 0.0 30.356989 19.326589 35.881074
1991 3 0.0 30.761862 19.704360 34.074872
1992 3 0.0 28.698516 19.343877 34.412997
1993 3 0.0 30.662964 21.439661 35.291679
1994 2 0.0 20.729034 29.726794 20.562062
1995 3 0.0 21.534894 29.314724 20.242078
1996 3 0.0 20.078782 29.546013 19.879354
1997 2 0.0 1.316553 25.488751 0.304223
1998 3 0.0 0.838221 26.320702 0.278610
1999 3 0.0 1.892597 25.518589 36.367860
2000 2 0.0 15.215885 32.654588 19.806645
2001 3 0.0 15.720164 32.183752 19.139101
2002 3 0.0 15.676778 32.473076 20.628977
2003 2 0.0 32.696271 24.643665 4.200867
2004 3 0.0 31.782635 24.932941 4.257342
2005 3 0.0 32.731420 24.111796 3.402443
2006 1 0.0 12.511882 20.424058 30.579730
2007 2 0.0 12.857303 21.888003 31.207783
2008 2 0.0 13.604226 19.335159 31.106970
2009 2 0.0 12.566438 20.504275 28.952619
2010 2 0.0 11.019560 19.968795 31.051547
2011 3 0.0 11.991628 21.542145 31.437105
2012 3 0.0 13.095305 19.766270 31.797435
2013 3 0.0 11.924126 21.085656 29.366179
2014 3 0.0 11.304938 20.825015 31.378726
2015 2 0.0 29.628264 29.395150 19.569405
2016 3 0.0 29.234198 28.520606 19.607940
2017 3 0.0 29.922142 29.486872 18.660107
2018 2 0.0 25.760353 34.275200 28.229699
2019 3 0.0 26.718794 34.252285 28.180047
2020 3 0.0 25.467116 33.893603 27.399039
2021 2 0.0 17.574735 0.997286 12.049735
2022 3 0.0 18.491283 0.725057 12.135947
2023 3 0.0 17.607353 1.956728 12.052402
2024 2 0.0 30.665676 36.367659 2.201375
2025 3 0.0 29.980649 36.791961 2.723203
2026 3 0.0 31.359753 0.196351 2.133310
2027 2 0.0 32.440988 18.693942 0.408940
2028 3 0.0 32.381908 18.299338 1.304037
2029 3 0.0 33.310842 19.134920 0.312549
2030 3 0.0 31.732244 19.363349 0.309059
2031 2 0.0 35.715266 12.177232 28.234580
2032 3 0.0 35.627285 12.951611 27.674047
2033 3 0.0 34.968875 11.622156 27.997111
2034 2 0.0 8.616960 18.517681 10.329264
2035 3 0.0 9.248837 17.812355 10.171635
2036 3 0.0 8.278583 18.736845 9.458018
2037 2 0.0 22.584891 10.666325 29.081947
2038 3 0.0 22.835588 9.807741 29.430638
2039 3 0.0 21.852724 10.480988 28.489341
2040 2 0.0 34.526283 36.260357 20.034443
2041 3 0.0 35.442345 36.452258 19.820891
2042 3 0.0 34.572658 35.704000 20.815414
2043 1 0.0 36.389578 4.705393 22.923000
2044 2 0.0 35.464170 4.091658 24.116252
2045 2 0.0 35.594443 5.926204 22.192054
2046 2 0.0 36.714227 3.538370 21.832331
2047 2 0.0 0.954447 5.265340 23.551365
2048 3 0.0 36.310158 4.445613 24.400187
2049 3 0.0 35.758610 6.052666 23.129421
2050 3 0.0 0.191299 3.357917 22.723461
2051 3 0.0 0.346510 4.884170 24.189112
2052 2 0.0 1.839168 30.709958 28.408244
2053 3 0.0 1.192102 30.797210 29.139061
2054 3 0.0 1.354950 30.678273 27.556816
2055 3 0.0 2.336942 29.873536 28.522350
2056 2 0.0 8.303555 0.796412 27.997719
2057 3 0.0 8.583328 1.690150 28.208811
2058 3 0.0 7.590512 0.910495 27.365142
2059 2 0.0 9.765713 20.717291 12.885489
2060 3 0.0 10.135808 20.441205 13.727158
2061 3 0.0 9.423077 19.909244 12.496566
2062 1 0.0 28.016076 15.696465 4.805255
2063 2 0.0 29.481799 16.078949 4.203374
2064 2 0.0 27.212772 14.769762 3.731559
2065 2 0.0 27.170332 17.061591 5.084622
2066 2 0.0 28.199401 14.875557 6.201465
2067 3 0.0 29.497374 15.591168 5.030070
2068 3 0.0 28.043139 14.402434 4.043267
2069 3 0.0 27.995243 16.988839 5.570244
2070 3 0.0 29.018194 15.141509 5.776675
2071 2 0.0 31.024797 14.702012 19.323632
2072 3 0.0 31.229975 13.833721 18.969270
2073 3 0.0 30.949903 15.265999 18.550385
2074 1 0.0 8.453586 34.342794 33.300266
2075 2 0.0 8.372082 32.782185 33.763686
2076 2 0.0 8.390740 35.304027 34.615173
2077 2 0.0 7.198825 34.683947 32.317369
2078 2 0.0 9.852698 34.601015 32.504837
2079 3 0.0 9.169102 33.022304 33.285459
2080 3 0.0 9.128633 34.690224 34.596213
2081 3 0.0 7.783517 33.990443 32.003065
2082 3 0.0 9.722348 33.701927 32.815078
2083 2 0.0 25.441667 24.216542 29.807560
2084 3 0.0 25.013499 24.853743 29.231152
2085 3 0.0 24.799368 23.509618 29.904055
2086 2 0.0 1.765678 27.257007 30.775780
2087 3 0.0 1.728243 27.999538 30.168453
2088 3 0.0 2.258967 27.587640 31.530068
2089 1 0.0 24.813225 27.396253 5.808087
2090 2 0.0 25.102391 28.812675 6.561103
2091 2 0.0 25.987770 27.112858 4.713998
2092 2 0.0 23.371392 27.467743 5.051180
2093 2 0.0 24.791345 26.191737 6.906068
2094 3 0.0 25.072600 28.045483 7.137410
2095 3 0.0 26.290063 27.196404 5.621323
2096 3 0.0 23.337395 27.596903 6.001844
2097 3 0.0 24.956375 27.066146 7.266309
2098 2 0.0 23.752409 14.812554 11.931664
2099 3 0.0 23.393040 15.666336 12.183677
2100 3 0.0 23.000426 14.328364 11.582835
2101 2 0.0 32.459432 33.879984 20.550695
2102 3 0.0 31.854047 34.207987 19.853327
2103 3 0.0 33.186965 33.376510 20.129258
2104 3 0.0 31.962827 33.281925 21.147444
2105 2 0.0 8.964629 1.838522 11.404643
2106 3 0.0 8.103665 1.417354 11.350249
2107 3 0.0 9.212092 1.761887 12.329029
2108 2 0.0 15.788813 26.766557 11.849696
2109 3 0.0 15.962625 26.925856 10.919098
2110 3 0.0 14.833878 26.824257 11.929509
2111 2 0.0 20.512186 6.461186 15.307891
2112 3 0.0 20.756266 6.646909 14.398204
2113 3 0.0 21.248210 6.793193 15.827160
2114 2 0.0 16.218228 35.257069 23.712906
2115 3 0.0 17.020482 35.668998 24.042000
2116 3 0.0 16.352018 35.193340 22.764413
2117 2 0.0 21.293698 21.173974 36.298620
2118 3 0.0 21.527213 21.539026 0.324223
2119 3 0.0 21.367909 20.223776 36.413584
2120 2 0.0 25.630498 24.361298 32.492515
2121 3 0.0 26.159901 25.021534 32.039282
2122 3 0.0 26.031655 24.286156 33.361438
2123 2 0.0 8.856992 33.431137 9.950767
2124 3 0.0 9.652037 33.293365 10.470884
2125 3 0.0 8.161338 33.550426 10.601487
2126 2 0.0 30.774044 32.716794 7.387859
2127 3 0.0 31.034762 33.554737 6.998656
2128 3 0.0 31.021176 32.059918 6.732848
2129 1 0.0 14.048360 33.678175 31.370985
2130 2 0.0 12.439464 33.667134 31.632196
2131 2 0.0 14.374081 34.534661 30.022935
2132 2 0.0 14.578989 32.148326 31.184179
2133 2 0.0 14.800905 34.362577 32.644629
2134 3 0.0 12.962354 34.055277 32.337555
2135 3 0.0 13.931120 35.025975 30.718633
2136 3 0.0 14.162365 32.332918 32.029134
2137 3 0.0 13.844728 34.315135 32.715860
2138 2 0.0 18.819235 25.513380 20.397521
2139 3 0.0 19.260823 24.944128 19.763051
2140 3 0.0 18.392529 26.185785 19.861429
2141 2 0.0 25.357934 0.805310 18.457801
2142 3 0.0 25.205958 0.032339 19.006454
2143 3 0.0 24.672564 0.762810 17.786935
2144 2 0.0 32.024374 25.604911 24.472532
2145 3 0.0 32.446617 24.742915 24.489122
2146 3 0.0 31.375426 25.568680 25.179040
2147 2 0.0 23.704561 20.180167 21.679599
2148 3 0.0 23.659088 19.844035 20.781519
2149 3 0.0 23.176303 19.565226 22.193789
2150 1 0.0 24.388001 17.965961 34.775779
2151 2 0.0 25.380822 18.607735 35.897978
2152 2 0.0 23.121339 18.963606 34.536671
2153 2 0.0 23.848566 16.517158 35.292383
2154 2 0.0 25.201276 17.775345 33.376083
2155 3 0.0 25.781509 18.461191 35.037992
2156 3 0.0 23.981062 19.347261 34.348831
2157 3 0.0 24.801762 16.586365 35.201677
2158 3 0.0 25.714420 18.150161 34.095663
2159 2 0.0 7.818246 36.399300 19.425671
2160 3 0.0 7.534967 36.594821 18.508107
2161 3 0.0 7.203212 35.743413 19.815473
2162 3 0.0 7.779476 0.393313 19.953129
2163 2 0.0 4.390647 31.135566 17.805815
2164 3 0.0 4.531367 30.211006 17.589051
2165 3 0.0 4.607472 31.607740 16.998574
2166 1 0.0 13.349809 10.943406 14.416014
2167 2 0.0 12.229984 11.242608 15.562038
2168 2 0.0 14.660914 11.874851 14.681179
2169 2 0.0 12.729177 11.284162 12.947818
2170 2 0.0 13.779161 9.372003 14.473022
2171 3 0.0 12.540461 10.334942 15.525339
2172 3 0.0 14.438519 11.274309 15.396364
2173 3 0.0 12.258490 10.607697 13.440209
2174 3 0.0 13.119325 9.635974 15.118419
2175 2 0.0 13.465744 15.412744 4.661380
2176 3 0.0 14.172814 14.948556 5.115452
2177 3 0.0 13.898080 15.845090 3.921270
2178 2 0.0 14.753143 18.067404 4.781971
2179 3 0.0 13.826045 17.835746 4.690188
2180 3 0.0 14.791733 18.999742 4.556453
2181 2 0.0 18.721600 13.286188 26.092407
2182 3 0.0 19.622779 13.214477 26.415415
2183 3 0.0 18.191160 12.842934 26.758560
2184 2 0.0 28.801241 15.941578 20.366363
2185 3 0.0 27.984573 15.917418 19.862309
2186 3 0.0 29.325686 15.220967 20.009605
2187 2 0.0 23.016248 12.972038 28.897062
2188 3 0.0 23.886054 12.974976 29.303300
2189 3 0.0 22.451125 13.413812 29.535084
2190 2 0.0 14.413230 25.019696 29.336760
2191 3 0.0 14.521433 24.375858 30.040582
2192 3 0.0 13.902116 24.560082 28.666599
2193 2 0.0 13.847407 6.705668 20.815979
2194 3 0.0 13.806323 6.044539 20.093745
2195 3 0.0 13.961869 7.597015 20.425085
2196 3 0.0 14.619537 6.506704 21.385740
2197 2 0.0 4.176616 15.472770 19.724819
2198 3 0.0 4.651856 16.119353 20.251770
2199 3 0.0 3.902346 15.955343 18.941557
