LAMMPS data file - pH=6.0, 86 Si(OH)4 + 14 Si(OH)3O- + 400 H2O + 14 H3O+

2142 atoms
3 atom types

0.0 36.588083 xlo xhi
0.0 36.588083 ylo yhi
0.0 36.588083 zlo zhi

Masses

1 28.0855  # Si
2 15.9994  # O
3 1.0079  # H

Atoms # charge

1 2 0.0 10.992670 11.280040 20.773579
2 3 0.0 11.496178 11.858131 20.195746
3 3 0.0 11.353820 10.405193 20.612912
4 1 0.0 2.471080 35.900121 13.358637
5 2 0.0 3.188796 34.444644 13.205764
6 2 0.0 1.245127 35.791817 14.427378
7 2 0.0 1.889944 36.374048 11.911373
8 2 0.0 3.560454 0.401892 13.890033
9 3 0.0 3.762355 35.149269 13.515818
10 3 0.0 2.110645 35.570897 14.779050
11 3 0.0 2.838343 36.227964 11.939655
12 3 0.0 3.901228 36.100356 13.771501
13 2 0.0 21.275912 25.988031 29.963615
14 3 0.0 21.651620 25.482703 30.688244
15 3 0.0 20.420736 26.277451 30.289972
16 1 0.0 16.394187 22.529985 2.439462
17 2 0.0 14.973392 22.121880 3.126259
18 2 0.0 16.150859 22.912239 0.873712
19 2 0.0 17.426263 21.272176 2.537624
20 2 0.0 17.026235 23.813645 3.220252
21 3 0.0 15.416740 22.873193 3.526973
22 3 0.0 15.673029 23.457071 1.503344
23 3 0.0 17.112365 21.606207 3.381123
24 3 0.0 16.183804 23.505336 3.562094
25 2 0.0 25.442438 3.137398 0.829777
26 3 0.0 25.097075 3.988861 0.551685
27 3 0.0 26.394214 3.221788 0.737032
28 2 0.0 29.240729 2.909781 9.622576
29 3 0.0 29.886263 3.619467 9.657688
30 3 0.0 29.286313 2.499846 10.489453
31 2 0.0 29.403637 9.799604 13.083857
32 3 0.0 29.388499 9.589216 14.020397
33 3 0.0 29.530821 10.750636 13.052837
34 2 0.0 3.762281 12.171559 11.722650
35 3 0.0 4.328087 12.911238 11.955753
36 3 0.0 3.979575 11.490905 12.363816
37 2 0.0 28.333382 4.164589 4.411912
38 3 0.0 27.463263 3.765491 4.484114
39 3 0.0 28.353710 4.539375 3.528327
40 2 0.0 31.159962 35.815200 13.972075
41 3 0.0 30.633823 35.014391 13.913063
42 3 0.0 30.792119 36.290236 14.720830
43 2 0.0 34.051159 5.687177 16.621576
44 3 0.0 34.181106 5.455550 17.544106
45 3 0.0 33.584612 4.935837 16.248183
46 1 0.0 4.550230 13.624159 24.686510
47 2 0.0 3.340682 12.769337 25.367077
48 2 0.0 5.964945 12.851855 24.929468
49 2 0.0 4.616558 15.105401 25.363580
50 2 0.0 4.278736 13.770044 23.085913
51 3 0.0 3.259771 12.903378 24.419930
52 3 0.0 5.308282 12.351220 24.439817
53 3 0.0 3.786583 14.894420 24.929727
54 3 0.0 3.610284 13.277302 23.567553
55 2 0.0 35.795484 26.578691 31.407702
56 3 0.0 35.823096 26.343684 30.477320
57 3 0.0 35.516090 27.497099 31.415779
58 2 0.0 11.345729 17.921106 21.854562
59 3 0.0 10.599347 17.348256 21.663886
60 3 0.0 11.390299 17.947314 22.813168
61 2 0.0 2.921107 25.194516 6.421403
62 3 0.0 2.077383 25.029418 5.994236
63 3 0.0 3.468428 25.578893 5.732713
64 1 0.0 7.283937 33.187001 25.153996
65 2 0.0 8.241529 31.941906 24.718500
66 2 0.0 6.044196 33.312370 24.103174
67 2 0.0 8.149162 34.568345 25.140822
68 2 0.0 6.700859 32.925383 26.653488
69 3 0.0 7.853783 31.868726 25.593656
70 3 0.0 6.096882 32.475450 24.570496
71 3 0.0 8.472406 33.892860 25.741516
72 3 0.0 7.278098 32.236211 26.316682
73 2 0.0 14.791844 3.297609 22.190897
74 3 0.0 14.283420 2.953494 22.928929
75 3 0.0 14.520628 2.762457 21.441461
76 2 0.0 7.363015 22.208891 18.337257
77 3 0.0 7.726413 21.532997 17.760447
78 3 0.0 8.066760 22.856230 18.422673
79 2 0.0 29.967459 22.419230 0.908695
80 3 0.0 29.873970 22.990171 1.674780
81 3 0.0 30.464007 22.944045 0.276548
82 2 0.0 20.112459 33.255342 1.661087
83 3 0.0 19.928620 32.706405 0.895273
84 3 0.0 20.800727 33.856386 1.366754
85 2 0.0 34.963576 9.435070 9.568749
86 3 0.0 34.324739 9.216123 10.251061
87 3 0.0 35.133243 10.372189 9.689672
88 2 0.0 10.838195 24.027479 22.339244
89 3 0.0 10.772095 24.178760 23.284942
90 3 0.0 11.779443 23.932870 22.175838
91 2 0.0 31.800021 26.762633 35.029140
92 3 0.0 32.358580 27.079954 34.315754
93 3 0.0 30.917749 26.738484 34.651501
94 2 0.0 35.149195 31.036213 9.607116
95 3 0.0 35.295605 30.640754 8.744691
96 3 0.0 36.006217 31.387580 9.859413
97 2 0.0 16.032691 26.868339 18.469685
98 3 0.0 16.485517 27.704702 18.600245
99 3 0.0 16.081673 26.432262 19.323522
100 1 0.0 31.852075 14.746102 11.270055
101 2 0.0 32.824570 15.946870 11.789006
102 2 0.0 30.986070 15.263290 9.989644
103 2 0.0 30.839363 14.309925 12.470499
104 2 0.0 32.758296 13.464324 10.831072
105 3 0.0 33.279102 15.148916 11.509240
106 3 0.0 31.938405 15.283901 9.870343
107 3 0.0 31.772842 14.207998 12.670069
108 3 0.0 33.254338 14.221289 11.151299
109 2 0.0 36.092494 1.882586 14.147591
110 3 0.0 36.331571 2.455556 14.879811
111 3 0.0 36.250788 0.994296 14.475440
112 2 0.0 27.442856 4.468456 19.491012
113 3 0.0 26.643978 4.650431 18.990733
114 3 0.0 27.874331 3.760876 19.006490
115 1 0.0 30.436219 22.975947 13.604770
116 2 0.0 30.829279 22.444486 12.114819
117 2 0.0 30.959971 21.907259 14.718542
118 2 0.0 28.817328 23.128817 13.717571
119 2 0.0 31.138297 24.423227 13.868147
120 3 0.0 31.203108 23.295857 12.353605
121 3 0.0 31.647309 22.288393 14.167268
122 3 0.0 29.229266 23.666961 13.037638
123 3 0.0 31.318575 24.035232 13.008752
124 2 0.0 15.030389 5.067546 32.630107
125 3 0.0 14.934066 4.139099 32.854401
126 3 0.0 15.078018 5.516184 33.477488
127 2 0.0 33.041088 10.869479 6.595819
128 3 0.0 33.779810 11.448890 6.395389
129 3 0.0 33.447509 10.074713 6.949046
130 2 0.0 1.202985 30.858849 18.666058
131 3 0.0 1.755394 31.642916 18.625024
132 3 0.0 1.588991 30.328894 19.367305
133 2 0.0 18.625613 32.905756 17.995058
134 3 0.0 18.080523 33.390873 18.618868
135 3 0.0 18.009868 32.332979 17.532041
136 1 0.0 34.389164 5.174731 23.109570
137 2 0.0 35.711420 6.005488 23.576883
138 2 0.0 34.357316 3.732500 23.868421
139 2 0.0 34.436989 4.939453 21.497349
140 2 0.0 33.050930 6.021483 23.495627
141 3 0.0 34.874191 6.434882 23.767326
142 3 0.0 34.344177 4.496856 24.449099
143 3 0.0 34.434090 5.858943 21.773266
144 1 0.0 12.517530 7.381769 31.081934
145 2 0.0 13.288753 7.726712 32.475896
146 2 0.0 13.576273 7.448286 29.844380
147 2 0.0 11.326478 8.467254 30.836950
148 2 0.0 11.878618 5.884824 31.170510
149 3 0.0 12.880612 6.858448 32.442147
150 3 0.0 13.787264 6.804623 30.524660
151 3 0.0 11.248297 7.954563 31.644808
152 3 0.0 12.353703 6.170210 31.954378
153 2 0.0 11.500485 22.365897 31.955493
154 3 0.0 12.161124 22.507753 31.273559
155 3 0.0 11.429356 23.212956 32.401623
156 1 0.0 23.310698 8.063744 33.427821
157 2 0.0 24.389440 8.298131 32.228539
158 2 0.0 22.637276 6.587553 33.272049
159 2 0.0 22.148035 9.203018 33.343146
160 2 0.0 24.068040 8.166274 34.867551
161 3 0.0 24.753288 8.342072 33.115829
162 3 0.0 23.590228 6.588561 33.388158
163 3 0.0 23.038103 9.540199 33.468393
164 3 0.0 24.633194 8.292802 34.101920
165 2 0.0 26.661113 4.972239 14.521396
166 3 0.0 26.599300 5.092250 15.471857
167 3 0.0 25.836011 4.545868 14.278467
168 2 0.0 33.098433 5.404306 12.111800
169 3 0.0 33.528050 6.261158 12.165038
170 3 0.0 32.748865 5.365412 11.218553
171 2 0.0 5.354813 19.194115 2.523862
172 3 0.0 5.525553 19.031435 1.572662
173 3 0.0 6.022708 18.711156 3.054019
174 3 0.0 4.463584 18.854768 2.749596
175 2 0.0 17.919569 21.064969 16.380328
176 3 0.0 17.856946 20.109775 16.307652
177 3 0.0 18.602079 21.309988 15.751244
178 1 0.0 9.091353 6.753559 6.008788
179 2 0.0 8.593779 7.642538 4.736374
180 2 0.0 8.369850 7.296080 7.365992
181 2 0.0 10.708689 6.884366 6.163749
182 2 0.0 8.693093 5.191250 5.769036
183 3 0.0 8.398249 6.704525 4.677218
184 3 0.0 7.769932 6.984603 6.684317
185 3 0.0 10.409389 6.519970 5.327546
186 3 0.0 8.435359 5.788579 5.063082
187 2 0.0 32.353540 13.780483 35.364271
188 3 0.0 32.041696 13.514967 34.496023
189 3 0.0 32.215298 14.730138 35.389637
190 2 0.0 5.219939 12.128062 6.041676
191 3 0.0 4.644973 11.447969 6.400127
192 3 0.0 5.139077 12.034415 5.089683
193 2 0.0 19.742571 16.058135 6.553114
194 3 0.0 20.024058 15.321376 6.005802
195 3 0.0 19.123253 16.543614 6.003247
196 2 0.0 34.618685 30.090142 18.890208
197 3 0.0 34.452577 31.028814 18.776616
198 3 0.0 34.267442 29.685438 18.093689
199 2 0.0 21.485709 9.537290 17.688889
200 3 0.0 21.616455 8.820884 18.314403
201 3 0.0 22.169560 9.407387 17.027775
202 2 0.0 34.819528 31.664523 21.139010
203 3 0.0 33.950644 31.562561 21.534287
204 3 0.0 35.197106 32.428259 21.581437
205 2 0.0 5.740665 18.044920 33.854082
206 3 0.0 6.617532 18.371080 34.069314
207 3 0.0 5.598961 18.317617 32.944601
208 1 0.0 25.179062 36.503623 25.639275
209 2 0.0 25.265833 0.424954 24.093355
210 2 0.0 23.907037 35.498718 25.809624
211 2 0.0 24.992413 1.200214 26.625011
212 2 0.0 26.550965 35.714440 26.029110
213 3 0.0 26.037321 36.535578 24.407104
214 3 0.0 24.569376 35.211162 25.176996
215 3 0.0 25.794258 1.206944 26.097187
216 3 0.0 26.517522 36.050345 25.130417
217 2 0.0 11.224064 31.964900 9.781796
218 3 0.0 10.564131 32.412031 9.246855
219 3 0.0 11.391949 32.567318 10.510155
220 1 0.0 19.309205 14.802687 23.754600
221 2 0.0 19.416973 13.177721 23.823677
222 2 0.0 20.675434 15.410744 23.106074
223 2 0.0 19.109796 15.398417 25.258676
224 2 0.0 18.034617 15.223867 22.829974
225 3 0.0 18.688872 13.513974 23.296038
226 3 0.0 20.190438 14.807369 22.538344
227 3 0.0 18.423564 14.793458 24.967625
228 2 0.0 7.396707 15.555506 6.358949
229 3 0.0 6.567708 15.132078 6.124282
230 3 0.0 7.322066 15.725318 7.300858
231 2 0.0 22.805628 21.728754 6.961946
232 3 0.0 22.034350 22.287179 7.083979
233 3 0.0 22.522416 21.061323 6.332718
234 1 0.0 11.129984 35.739398 13.171597
235 2 0.0 12.539617 35.851566 13.982309
236 2 0.0 10.138047 34.704267 13.947140
237 2 0.0 11.413220 35.192781 11.662330
238 2 0.0 10.429050 0.620894 13.094610
239 3 0.0 12.057940 0.088742 13.889929
240 3 0.0 10.411785 35.466734 14.462225
241 3 0.0 11.850860 36.018038 11.883742
242 3 0.0 11.269307 0.595952 13.558232
243 2 0.0 21.083041 12.850160 28.311119
244 3 0.0 21.029395 13.671996 28.804381
245 3 0.0 20.266395 12.817982 27.807478
246 2 0.0 7.562262 0.412071 30.430707
247 3 0.0 8.473898 0.378082 30.131769
248 3 0.0 7.053065 0.571620 29.632669
249 2 0.0 25.536842 14.529566 24.497968
250 3 0.0 24.904836 13.808918 24.551210
251 3 0.0 25.213600 15.080745 23.781507
252 2 0.0 21.282816 20.749595 8.978878
253 3 0.0 22.016903 20.180061 9.220429
254 3 0.0 20.627974 20.153806 8.607641
255 2 0.0 14.322121 34.799082 1.992166
256 3 0.0 14.286483 35.665347 1.579958
257 3 0.0 14.258178 34.977535 2.933264
258 2 0.0 0.936587 3.547085 22.619220
259 3 0.0 1.690801 3.647544 23.204600
260 3 0.0 0.389801 4.315850 22.797059
261 2 0.0 30.545238 27.715968 23.827988
262 3 0.0 29.905406 27.076336 24.149058
263 3 0.0 31.389968 27.394757 24.151801
264 2 0.0 2.902013 0.725967 32.838020
265 3 0.0 2.097859 1.147966 33.149231
266 3 0.0 2.898297 0.871163 31.889071
267 2 0.0 12.317534 34.119277 6.292575
268 3 0.0 12.518135 33.884697 7.201603
269 3 0.0 11.806426 33.377881 5.959857
270 2 0.0 28.702098 29.421182 1.065011
271 3 0.0 29.275556 30.145663 0.804487
272 3 0.0 28.847808 29.326422 2.009145
273 1 0.0 4.515683 31.734523 0.768484
274 2 0.0 5.899062 30.880331 0.652220
275 2 0.0 3.573164 31.420806 36.064228
276 2 0.0 4.862384 33.326561 0.814456
277 2 0.0 3.728122 31.310395 2.131115
278 3 0.0 5.369921 30.691618 1.430678
279 3 0.0 3.789345 30.656755 0.015674
280 3 0.0 5.244272 32.807463 1.526002
281 3 0.0 4.558729 30.852316 1.983281
282 2 0.0 23.596013 11.574889 27.321159
283 3 0.0 23.953177 12.035327 26.558250
284 3 0.0 24.368678 11.256305 27.793485
285 2 0.0 11.561764 2.936634 18.625038
286 3 0.0 12.422000 3.280383 18.373183
287 3 0.0 11.143989 3.658372 19.100599
288 2 0.0 25.611454 6.357382 2.214681
289 3 0.0 25.006642 6.100911 1.514663
290 3 0.0 25.045727 6.526279 2.971666
291 1 0.0 17.230511 13.182303 4.772756
292 2 0.0 16.927610 11.639547 5.202936
293 2 0.0 17.714787 13.227480 3.217013
294 2 0.0 18.404697 13.791408 5.725215
295 2 0.0 15.874949 14.070779 4.945860
296 3 0.0 16.178382 12.235414 5.275049
297 3 0.0 16.838085 12.862862 3.358602
298 3 0.0 17.616672 13.499273 6.189190
299 3 0.0 15.785045 13.143866 5.178991
300 2 0.0 16.904041 23.423626 24.373436
301 3 0.0 16.306539 23.012360 23.744587
302 3 0.0 17.780293 23.250216 24.021709
303 1 0.0 3.105677 29.653202 31.008809
304 2 0.0 2.701316 28.100915 31.298285
305 2 0.0 4.709591 29.755214 30.736864
306 2 0.0 2.714494 30.566597 32.300933
307 2 0.0 2.297307 30.190082 29.699153
308 3 0.0 2.267990 28.498298 30.539395
309 3 0.0 4.229153 29.193448 30.124330
310 3 0.0 1.977620 30.109120 31.889434
311 2 0.0 30.942105 16.616275 28.716036
312 3 0.0 30.448201 16.184242 29.416755
313 3 0.0 31.862379 16.446812 28.930461
314 2 0.0 35.165982 32.625813 35.943924
315 3 0.0 34.534643 32.115012 36.455874
316 3 0.0 34.646440 33.007232 35.232450
317 2 0.0 6.936628 7.134414 36.586795
318 3 0.0 6.547666 7.274036 35.720299
319 3 0.0 6.280689 7.470321 0.613944
320 2 0.0 18.045980 24.472217 13.192456
321 3 0.0 18.082987 24.807685 14.091173
322 3 0.0 18.017632 25.258842 12.642894
323 2 0.0 10.796128 21.463796 19.468869
324 3 0.0 9.942624 21.024774 19.488652
325 3 0.0 11.397539 20.839489 19.881356
326 2 0.0 21.664176 32.701305 16.349022
327 3 0.0 21.780882 31.808130 16.017032
328 3 0.0 21.306951 33.190221 15.604071
329 2 0.0 10.216307 35.753969 19.316729
330 3 0.0 9.751372 36.175975 18.590543
331 3 0.0 9.545394 35.229116 19.759455
332 2 0.0 6.205932 9.576234 13.325508
333 3 0.0 6.699794 10.076904 12.672033
334 3 0.0 6.665341 8.735186 13.381912
335 2 0.0 29.359165 22.717758 6.977650
336 3 0.0 28.767199 21.964102 7.034037
337 3 0.0 29.848482 22.701790 7.803431
338 2 0.0 8.892341 8.654896 29.846538
339 3 0.0 9.529062 9.337526 30.144871
340 3 0.0 8.224023 9.075366 29.266059
341 3 0.0 8.440650 8.277238 30.629961
342 2 0.0 6.212247 12.127536 13.604912
343 3 0.0 6.878627 12.450892 14.215631
344 3 0.0 6.703745 11.605057 12.966911
345 2 0.0 18.664564 24.441123 17.409135
346 3 0.0 17.903162 24.139089 16.908494
347 3 0.0 18.315831 25.119986 17.991484
348 2 0.0 34.121938 32.244658 27.640649
349 3 0.0 33.279001 32.413387 28.067951
350 3 0.0 33.923823 31.589017 26.967978
351 2 0.0 31.820859 0.532737 26.776341
352 3 0.0 31.856221 36.166524 26.874668
353 3 0.0 32.586490 0.747831 26.238620
354 2 0.0 10.834063 12.019754 26.284291
355 3 0.0 10.246422 12.667743 26.679750
356 3 0.0 10.791893 12.199828 25.342275
357 2 0.0 9.529377 29.655525 9.979103
358 3 0.0 10.240840 29.597801 10.621044
359 3 0.0 8.858828 30.190256 10.410413
360 2 0.0 32.520931 27.141220 11.609768
361 3 0.0 32.370437 26.848269 12.511506
362 3 0.0 33.004813 26.420366 11.200098
363 2 0.0 13.809748 10.881633 4.434614
364 3 0.0 14.683305 11.131143 4.124382
365 3 0.0 13.847059 11.007379 5.385611
366 2 0.0 30.480906 7.824162 33.590345
367 3 0.0 29.872250 7.082146 33.566888
368 3 0.0 29.989544 8.524861 34.025298
369 2 0.0 7.784179 25.599660 34.802744
370 3 0.0 8.357638 25.697870 35.566353
371 3 0.0 8.340944 25.823116 34.053291
372 2 0.0 30.980936 15.871073 6.536513
373 3 0.0 30.400578 16.251409 5.873091
374 3 0.0 31.064851 14.949020 6.282784
375 2 0.0 7.756886 28.259056 30.107469
376 3 0.0 6.855574 28.168536 29.789597
377 3 0.0 8.110979 27.367045 30.084373
378 2 0.0 30.648628 30.778734 13.093920
379 3 0.0 30.104999 30.000316 12.952029
380 3 0.0 31.478726 30.434324 13.431440
381 2 0.0 27.650490 16.050527 11.077080
382 3 0.0 27.031826 16.103429 10.344922
383 3 0.0 28.259459 15.351589 10.827597
384 2 0.0 29.531205 11.635556 31.825497
385 3 0.0 29.593549 12.330036 31.165640
386 3 0.0 28.690031 11.792020 32.260864
387 2 0.0 13.170334 32.955589 13.709748
388 3 0.0 13.862858 32.733283 14.336318
389 3 0.0 12.600594 32.183045 13.696590
390 2 0.0 19.920625 28.627842 2.933371
391 3 0.0 19.221437 28.025033 2.670012
392 3 0.0 20.699556 28.072516 3.013861
393 2 0.0 28.906613 17.163245 7.764281
394 3 0.0 28.679413 17.019033 8.685793
395 3 0.0 28.061998 17.183037 7.308395
396 1 0.0 3.996732 21.860600 20.794563
397 2 0.0 4.352307 20.613546 21.782147
398 2 0.0 5.189241 22.969363 20.868509
399 2 0.0 2.591920 22.541494 21.263378
400 2 0.0 3.853461 21.317998 19.264218
401 3 0.0 4.249792 20.381403 20.856295
402 3 0.0 5.462714 22.098652 20.570727
403 3 0.0 2.531552 21.615787 21.016349
404 2 0.0 4.510987 14.917560 13.849011
405 3 0.0 4.753671 15.238520 14.720612
406 3 0.0 5.326307 14.562048 13.487812
407 2 0.0 24.485958 15.429838 35.723255
408 3 0.0 24.967685 15.537335 34.899858
409 3 0.0 25.153729 15.164654 36.359933
410 1 0.0 10.684478 2.669852 3.748659
411 2 0.0 9.677492 2.914451 5.006853
412 2 0.0 9.995920 3.235361 2.383747
413 2 0.0 10.976837 1.074258 3.588945
414 2 0.0 12.087663 3.455336 4.015092
415 3 0.0 10.532519 3.344436 5.081970
416 3 0.0 10.131728 3.891235 3.071486
417 3 0.0 11.238725 1.452360 4.431592
418 3 0.0 11.433101 3.546542 4.711390
419 1 0.0 6.850234 18.129021 9.618487
420 2 0.0 8.346419 18.449525 9.056697
421 2 0.0 6.254891 19.450905 10.363531
422 2 0.0 6.921241 16.893270 10.679042
423 2 0.0 5.878387 17.722386 8.374679
424 3 0.0 7.706154 18.200016 8.386320
425 3 0.0 6.475226 19.572046 9.437044
426 3 0.0 7.227224 16.685671 9.793109
427 3 0.0 6.783951 17.928314 8.131478
428 2 0.0 36.492752 22.981412 27.157639
429 3 0.0 36.430173 22.026241 27.084604
430 3 0.0 36.556177 23.288539 26.250308
431 2 0.0 0.724364 8.121255 34.295588
432 3 0.0 1.479830 8.088550 34.887029
433 3 0.0 0.448951 7.205975 34.206094
434 1 0.0 4.160026 34.431735 20.191189
435 2 0.0 3.554155 33.904991 18.772611
436 2 0.0 5.776643 34.596711 20.063788
437 2 0.0 3.814650 33.353170 21.363500
438 2 0.0 3.494656 35.872066 20.564857
439 3 0.0 3.213917 34.752145 19.069543
440 3 0.0 5.264712 35.135149 19.455831
441 3 0.0 3.050538 33.731772 20.922599
442 3 0.0 3.191685 35.487161 19.739232
443 1 0.0 12.882644 7.623882 10.678527
444 2 0.0 13.117056 9.236492 10.640594
445 2 0.0 11.547225 7.289337 11.551243
446 2 0.0 14.174138 6.903072 11.363638
447 2 0.0 12.692159 7.066627 9.158631
448 3 0.0 12.995103 8.823944 9.782380
449 3 0.0 11.400449 7.843832 10.781443
450 3 0.0 14.365006 7.407919 10.569725
451 3 0.0 12.836337 8.013154 9.228631
452 2 0.0 15.275040 25.031143 11.698870
453 3 0.0 14.884184 25.546081 12.408567
454 3 0.0 14.946340 25.440587 10.895183
455 2 0.0 4.299758 24.532690 11.042530
456 3 0.0 5.112637 25.023440 11.183925
457 3 0.0 4.587332 23.686534 10.691928
458 2 0.0 24.513889 1.888717 34.757800
459 3 0.0 24.335270 0.963073 34.939126
460 3 0.0 25.405020 2.030568 35.085464
461 2 0.0 1.025072 12.679866 27.545158
462 3 0.0 0.506254 13.318558 27.050688
463 3 0.0 0.383616 12.035404 27.853058
464 2 0.0 13.765884 31.342939 9.802434
465 3 0.0 13.891272 32.095230 10.385475
466 3 0.0 13.299772 30.697627 10.339008
467 2 0.0 4.376373 3.011983 16.995564
468 3 0.0 4.020974 3.070761 17.885416
469 3 0.0 5.328134 2.983886 17.117882
470 1 0.0 29.913963 10.584032 5.575124
471 2 0.0 30.911655 9.557327 4.795773
472 2 0.0 28.664148 9.751247 6.208632
473 2 0.0 29.349617 11.695481 4.524840
474 2 0.0 30.730430 11.332071 6.771250
475 3 0.0 31.313856 10.042626 5.519872
476 3 0.0 29.530602 9.486440 6.526018
477 3 0.0 30.304177 11.680571 4.625804
478 3 0.0 31.246140 10.705776 6.258026
479 2 0.0 24.127831 28.462164 20.130279
480 3 0.0 23.832847 28.122172 20.978212
481 3 0.0 24.203456 29.409785 20.264052
482 1 0.0 18.983180 28.097758 29.412285
483 2 0.0 17.544132 28.248720 30.162786
484 2 0.0 19.168295 26.562831 28.895924
485 2 0.0 20.180775 28.468760 30.453930
486 2 0.0 19.039518 29.110724 28.136500
487 3 0.0 17.662638 28.813129 29.395324
488 3 0.0 18.409260 27.024505 28.532162
489 3 0.0 19.551876 29.175409 30.290424
490 3 0.0 18.221403 29.135225 28.638184
491 2 0.0 13.048633 22.488914 10.224132
492 3 0.0 13.612339 23.244418 10.042336
493 3 0.0 12.264911 22.865702 10.630838
494 2 0.0 33.095628 24.583458 5.212438
495 3 0.0 32.579604 23.833143 5.516325
496 3 0.0 32.502622 25.063139 4.629473
497 2 0.0 14.792926 31.893691 6.744790
498 3 0.0 15.238660 31.365980 7.411455
499 3 0.0 13.868949 31.879743 7.004931
500 2 0.0 2.948077 5.746561 35.526168
501 3 0.0 3.076681 5.039439 34.889741
502 3 0.0 2.745380 6.517684 34.991488
503 2 0.0 26.301191 7.494047 8.843067
504 3 0.0 27.073799 6.970838 8.617391
505 3 0.0 26.257675 8.166383 8.159203
506 1 0.0 28.696933 25.573914 19.546612
507 2 0.0 29.902316 25.897462 18.498152
508 2 0.0 27.535481 24.715366 18.791083
509 2 0.0 28.066835 26.972261 20.098429
510 2 0.0 29.283100 24.710565 20.798785
511 3 0.0 30.161631 25.389200 19.270178
512 3 0.0 28.400492 24.299404 18.809305
513 3 0.0 29.000143 26.846384 20.284688
514 3 0.0 29.930255 24.945705 20.129831
515 1 0.0 29.241705 3.241133 22.630433
516 2 0.0 27.995042 2.438208 23.307220
517 2 0.0 30.369465 2.174291 22.133539
518 2 0.0 29.896745 4.252416 23.728216
519 2 0.0 28.705567 4.099619 21.352755
520 3 0.0 27.766536 2.972568 22.543124
521 3 0.0 29.505077 2.068622 21.729475
522 3 0.0 28.971597 4.413855 23.529121
523 3 0.0 28.032030 3.593370 21.812820
524 2 0.0 35.608158 0.451359 31.359442
525 3 0.0 36.510877 0.328270 31.056875
526 3 0.0 35.479747 36.353751 32.018941
527 2 0.0 9.331026 0.746583 8.031199
528 3 0.0 9.898395 1.450474 7.708352
529 3 0.0 8.555990 0.783766 7.465924
530 2 0.0 27.090664 17.364071 32.075342
531 3 0.0 26.630197 16.538047 31.910249
532 3 0.0 27.704113 17.448451 31.341747
533 2 0.0 8.917837 16.795289 2.299156
534 3 0.0 8.815763 17.121167 1.401947
535 3 0.0 9.617142 17.336039 2.673538
536 2 0.0 6.802338 2.887803 22.838784
537 3 0.0 7.460787 2.780571 23.556661
538 3 0.0 5.991228 3.294280 23.209293
539 3 0.0 6.578993 2.004615 22.477542
540 2 0.0 0.237358 16.261245 5.210057
541 3 0.0 36.246960 15.534652 4.967111
542 3 0.0 36.557797 16.983799 4.637447
543 2 0.0 3.491228 7.675657 32.514541
544 3 0.0 3.205983 8.082908 31.693333
545 3 0.0 4.436394 7.548517 32.404557
546 2 0.0 13.477174 24.090093 22.035670
547 3 0.0 13.448768 24.502897 22.901918
548 3 0.0 14.260290 23.535309 22.058990
549 2 0.0 24.909000 35.746470 15.925853
550 3 0.0 23.988240 35.826097 16.185583
551 3 0.0 25.224872 34.970164 16.394014
552 2 0.0 22.444497 17.187569 34.712387
553 3 0.0 22.548391 17.776849 33.961685
554 3 0.0 22.815745 16.353146 34.416561
555 1 0.0 11.496872 0.626117 25.425953
556 2 0.0 11.643034 2.121865 26.057042
557 2 0.0 10.727784 36.248271 26.490088
558 2 0.0 12.977877 0.020695 25.114523
559 2 0.0 10.638795 0.701719 24.042159
560 3 0.0 11.148432 2.074645 25.235617
561 3 0.0 10.225875 0.425663 26.200717
562 3 0.0 12.765180 0.832507 24.648346
563 3 0.0 10.773189 1.543995 24.482737
564 2 0.0 18.845460 17.512156 15.690567
565 3 0.0 18.396421 16.710753 15.411791
566 3 0.0 19.728863 17.222307 15.929704
567 2 0.0 21.472634 5.239966 9.082780
568 3 0.0 22.272774 4.959585 9.533073
569 3 0.0 21.777508 5.852205 8.409123
570 2 0.0 0.563054 9.330438 11.256947
571 3 0.0 0.083212 10.052351 11.669492
572 3 0.0 1.280703 9.139681 11.865381
573 2 0.0 20.120344 17.490403 9.709238
574 3 0.0 20.698168 16.730388 9.608749
575 3 0.0 20.491062 17.978589 10.448050
576 2 0.0 26.010787 1.954696 3.530899
577 3 0.0 26.714688 2.377273 4.028446
578 3 0.0 25.717965 1.233731 4.093096
579 2 0.0 30.905573 12.979548 21.380172
580 3 0.0 30.424061 12.160305 21.243836
581 3 0.0 31.377969 13.121012 20.556504
582 2 0.0 23.545968 28.845707 29.293002
583 3 0.0 23.276405 27.924496 29.275480
584 3 0.0 24.504385 28.815208 29.338891
585 2 0.0 23.862224 34.101194 1.877464
586 3 0.0 24.359305 34.288793 2.677038
587 3 0.0 24.088609 33.193816 1.660636
588 2 0.0 20.222494 20.113427 12.182429
589 3 0.0 19.323281 20.358758 12.412276
590 3 0.0 20.249486 19.160959 12.299376
591 2 0.0 4.211221 1.483707 5.578064
592 3 0.0 3.349330 1.680571 5.203915
593 3 0.0 4.336084 2.149496 6.258309
594 2 0.0 35.092048 18.858200 26.769471
595 3 0.0 35.310989 18.534359 27.646278
596 3 0.0 34.987575 19.805837 26.882033
597 2 0.0 29.214405 8.656868 22.304642
598 3 0.0 29.616913 7.806244 22.114834
599 3 0.0 29.593235 8.919889 23.146608
600 2 0.0 17.884241 18.928200 14.231420
601 3 0.0 18.548134 18.411925 13.768487
602 3 0.0 17.047802 18.541567 13.962191
603 2 0.0 23.319674 11.763456 11.485933
604 3 0.0 22.382430 11.597671 11.360678
605 3 0.0 23.364838 12.302853 12.278783
606 2 0.0 4.679741 24.325634 16.763912
607 3 0.0 4.122284 24.983746 17.185494
608 3 0.0 5.467635 24.291269 17.311307
609 2 0.0 22.733587 2.317942 18.481724
610 3 0.0 23.222680 1.858778 19.168424
611 3 0.0 23.380472 2.476095 17.790256
612 2 0.0 22.640371 28.095004 14.619815
613 3 0.0 23.450862 27.580621 14.630459
614 3 0.0 22.922006 28.991983 14.814008
615 2 0.0 32.245760 1.347177 0.570455
616 3 0.0 33.060196 1.866309 0.404336
617 3 0.0 31.978811 0.899950 36.328402
618 3 0.0 31.530565 1.957362 0.847170
619 1 0.0 4.241301 10.366290 36.424301
620 2 0.0 4.124533 11.959928 36.102462
621 2 0.0 5.484734 9.731727 35.582811
622 2 0.0 2.856967 9.621926 35.992510
623 2 0.0 4.498970 10.151577 1.431337
624 3 0.0 4.277441 11.742454 0.436834
625 3 0.0 5.724328 10.430851 36.195527
626 3 0.0 2.758806 10.306937 0.069801
627 3 0.0 4.417353 11.066747 1.153123
628 2 0.0 17.029804 2.695398 22.709974
629 3 0.0 17.868882 2.234254 22.779927
630 3 0.0 17.268013 3.592994 22.466709
631 2 0.0 9.907257 14.583228 10.364778
632 3 0.0 10.344482 15.421637 10.107281
633 3 0.0 9.997325 14.461887 11.333057
634 3 0.0 10.352458 13.839084 9.908220
635 2 0.0 34.985365 7.930808 29.423903
636 3 0.0 34.843403 7.818044 30.366628
637 3 0.0 34.124377 8.178101 29.078730
638 2 0.0 22.378244 10.782753 8.532459
639 3 0.0 22.880226 11.478542 8.963147
640 3 0.0 22.874385 9.980973 8.712994
641 2 0.0 23.060968 7.692408 24.507052
642 3 0.0 22.463215 7.582941 25.250227
643 3 0.0 22.649890 7.199801 23.792942
644 2 0.0 11.867138 13.662418 19.992987
645 3 0.0 12.222214 14.525581 20.217644
646 3 0.0 12.530538 13.270944 19.420057
647 2 0.0 32.312045 6.079936 28.196498
648 3 0.0 32.786366 6.596044 28.881371
649 3 0.0 32.966495 5.704448 27.571114
650 3 0.0 31.711008 6.678950 27.706256
651 2 0.0 21.325008 16.998718 2.499669
652 3 0.0 22.260621 16.786308 2.533012
653 3 0.0 21.002492 16.804549 3.382778
654 1 0.0 3.030331 23.124390 33.241512
655 2 0.0 3.037285 24.219815 34.448531
656 2 0.0 4.398171 23.270662 32.367146
657 2 0.0 1.740245 23.383959 32.279637
658 2 0.0 2.945621 21.623122 33.870734
659 3 0.0 2.988908 23.303936 34.732123
660 3 0.0 4.529962 23.059694 33.294358
661 3 0.0 1.530405 23.187552 33.195602
662 3 0.0 2.954657 22.333658 34.516224
663 2 0.0 3.521891 21.134490 29.400740
664 3 0.0 3.017256 21.167683 28.584749
665 3 0.0 4.230973 20.513061 29.220109
666 2 0.0 28.212973 20.006580 19.730620
667 3 0.0 27.776657 19.196748 20.005210
668 3 0.0 29.150043 19.814933 19.812907
669 2 0.0 15.542300 27.662708 9.909728
670 3 0.0 15.554805 26.952641 10.555676
671 3 0.0 16.257516 27.450947 9.305391
672 2 0.0 33.463876 30.984297 23.585825
673 3 0.0 32.980735 31.701188 23.168402
674 3 0.0 33.183569 31.007524 24.503697
675 2 0.0 27.036392 32.169492 4.628058
676 3 0.0 27.382330 31.648685 3.899575
677 3 0.0 27.486622 33.014225 4.555126
678 2 0.0 29.831421 15.785762 27.185453
679 3 0.0 29.086362 15.641475 26.597518
680 3 0.0 30.586821 15.436570 26.706876
681 2 0.0 14.083600 13.742288 13.199398
682 3 0.0 14.943555 13.555931 12.815538
683 3 0.0 13.546259 12.981494 12.966897
684 2 0.0 15.802280 31.890634 32.539874
685 3 0.0 16.084755 31.735805 33.444217
686 3 0.0 16.461521 31.445673 32.002276
687 1 0.0 16.809676 19.264714 25.148548
688 2 0.0 18.181136 18.481367 25.551491
689 2 0.0 15.522009 18.379965 25.613342
690 2 0.0 16.763746 19.484414 23.534075
691 2 0.0 16.771812 20.713111 25.895284
692 3 0.0 18.077157 19.348531 25.950009
693 3 0.0 16.111524 18.642767 26.323980
694 3 0.0 17.512865 19.889174 23.977459
695 3 0.0 17.550550 20.182442 26.078470
696 1 0.0 24.644538 32.114270 6.433193
697 2 0.0 23.646105 32.359191 7.698122
698 2 0.0 26.170543 31.925515 6.974101
699 2 0.0 24.577995 33.398692 5.431828
700 2 0.0 24.183510 30.773681 5.628721
701 3 0.0 23.445183 31.585469 7.166535
702 3 0.0 25.540403 31.280936 7.304315
703 3 0.0 23.743160 32.943465 5.563810
704 2 0.0 19.537175 34.541047 0.255541
705 3 0.0 18.577963 34.570627 0.230297
706 3 0.0 19.772661 33.841766 36.229497
707 2 0.0 4.485958 8.482086 7.486315
708 3 0.0 4.891343 8.485777 6.616114
709 3 0.0 5.217750 8.614886 8.093311
710 2 0.0 7.976432 0.663342 14.636513
711 3 0.0 8.258925 1.515270 14.295900
712 3 0.0 8.595388 0.035198 14.257135
713 2 0.0 30.428172 4.622393 27.213970
714 3 0.0 29.510468 4.411247 27.027324
715 3 0.0 30.453657 5.581662 27.241445
716 2 0.0 9.530296 4.036747 18.338595
717 3 0.0 9.825367 4.510530 19.119660
718 3 0.0 8.582835 4.188473 18.308663
719 2 0.0 20.166123 11.311636 20.004164
720 3 0.0 19.251077 11.578302 19.889366
721 3 0.0 20.675906 12.030695 19.623802
722 2 0.0 30.082547 17.874055 31.144127
723 3 0.0 29.495823 18.580999 31.422669
724 3 0.0 30.945935 18.288897 31.080358
725 2 0.0 32.291182 29.484287 26.709258
726 3 0.0 32.997525 29.854117 26.174556
727 3 0.0 32.743022 29.031472 27.425079
728 2 0.0 13.260391 34.129023 26.696438
729 3 0.0 13.379256 33.219539 26.413047
730 3 0.0 12.727935 34.528954 26.004957
731 2 0.0 15.169135 13.768909 10.320403
732 3 0.0 14.818484 13.313956 9.551207
733 3 0.0 15.624523 14.533720 9.960840
734 2 0.0 24.420262 12.089230 34.896206
735 3 0.0 24.736886 11.250968 34.551728
736 3 0.0 23.624497 12.271825 34.391214
737 2 0.0 11.484581 28.704096 15.102653
738 3 0.0 10.631067 28.423191 14.764708
739 3 0.0 12.010366 27.901218 15.125821
740 2 0.0 34.085010 16.906579 20.671400
741 3 0.0 34.718475 17.061556 21.375889
742 3 0.0 33.406754 16.359126 21.073723
743 2 0.0 13.332536 18.032586 4.803431
744 3 0.0 12.408735 17.776061 4.754574
745 3 0.0 13.402526 18.524878 5.624619
746 2 0.0 21.157584 28.789564 33.356704
747 3 0.0 21.272110 29.474991 32.694379
748 3 0.0 21.263326 27.967209 32.872813
749 2 0.0 29.484345 29.267880 28.989408
750 3 0.0 30.103854 29.326336 29.720429
751 3 0.0 29.961938 28.790967 28.306723
752 2 0.0 15.725908 8.171692 31.286844
753 3 0.0 15.680378 7.733519 30.433890
754 3 0.0 16.592297 8.584994 31.299174
755 2 0.0 4.583328 27.671747 21.099417
756 3 0.0 3.646148 27.857280 21.005222
757 3 0.0 4.999496 28.536701 21.115498
758 1 0.0 35.271480 23.216143 7.736699
759 2 0.0 35.020586 24.529585 6.804593
760 2 0.0 35.922465 22.025423 6.833757
761 2 0.0 33.851646 22.712030 8.358666
762 2 0.0 36.291223 23.597534 8.949780
763 3 0.0 35.613019 24.666461 7.547484
764 3 0.0 36.441426 22.831915 6.876775
765 3 0.0 34.104439 23.606774 8.597684
766 3 0.0 36.087804 24.318192 8.349053
767 2 0.0 13.098293 27.615063 28.716297
768 3 0.0 12.272512 27.199577 28.975250
769 3 0.0 13.579996 26.925468 28.253675
770 2 0.0 26.256548 30.553711 26.461541
771 3 0.0 25.860137 29.949783 25.829299
772 3 0.0 27.122264 30.179813 26.641361
773 2 0.0 16.738248 19.446631 10.343441
774 3 0.0 16.170280 18.679012 10.442299
775 3 0.0 17.614159 19.129403 10.575275
776 2 0.0 23.955250 10.453401 30.788430
777 3 0.0 24.055674 9.569659 31.149698
778 3 0.0 24.040133 10.336531 29.839359
779 2 0.0 13.585262 10.034407 27.275159
780 3 0.0 14.320920 10.189504 26.678207
781 3 0.0 13.948540 9.473163 27.964097
782 2 0.0 9.943694 28.840751 1.076709
783 3 0.0 10.248979 27.991087 1.403011
784 3 0.0 10.194880 29.465665 1.760806
785 1 0.0 34.490726 11.612460 14.178203
786 2 0.0 36.115289 11.614622 14.311214
787 2 0.0 33.960756 13.139493 13.967964
788 2 0.0 33.835274 10.991874 15.535463
789 2 0.0 34.051586 10.703850 12.898170
790 3 0.0 35.768892 11.100077 13.578511
791 3 0.0 34.563770 12.822576 13.291549
792 3 0.0 34.422160 10.398918 15.060524
793 3 0.0 34.997771 10.759759 13.050514
794 2 0.0 20.689469 9.218715 0.905489
795 3 0.0 21.040500 9.581591 0.088972
796 3 0.0 20.696244 9.956746 1.519381
797 2 0.0 35.931175 4.246434 33.369008
798 3 0.0 36.555719 3.772529 32.814968
799 3 0.0 35.406753 4.763160 32.752911
800 1 0.0 29.416618 18.046582 1.865279
801 2 0.0 30.619006 17.607007 0.856351
802 2 0.0 28.244212 18.798298 1.018352
803 2 0.0 30.002380 19.060022 2.999616
804 2 0.0 28.800873 16.721000 2.586798
805 3 0.0 30.198032 16.882978 1.325566
806 3 0.0 28.425650 17.895565 0.746775
807 3 0.0 30.409801 18.190930 2.982698
808 3 0.0 29.518670 16.551913 1.972163
809 2 0.0 16.565724 12.806457 22.878447
810 3 0.0 16.834788 12.061768 22.335638
811 3 0.0 16.664700 12.494633 23.780982
812 2 0.0 6.662944 34.224163 31.249161
813 3 0.0 6.017221 34.109007 31.950147
814 3 0.0 7.388895 34.694521 31.665526
815 1 0.0 7.788582 26.931951 9.518645
816 2 0.0 8.402872 25.484076 9.946670
817 2 0.0 6.986375 26.786032 8.107237
818 2 0.0 9.001466 28.007065 9.345605
819 2 0.0 6.763615 27.450631 10.675067
820 3 0.0 7.785610 25.864870 10.575624
821 3 0.0 6.650758 26.241208 8.822868
822 3 0.0 8.924854 27.619183 10.220407
823 3 0.0 7.173086 26.599692 10.847796
824 2 0.0 5.318318 29.147489 34.851764
825 3 0.0 5.689556 28.751571 34.059911
826 3 0.0 5.806678 29.966467 34.963035
827 2 0.0 23.596943 22.145862 15.271483
828 3 0.0 23.517246 22.787678 14.562033
829 3 0.0 24.077655 22.608533 15.961737
830 2 0.0 34.987605 18.447490 3.775960
831 3 0.0 34.170714 17.965711 3.627038
832 3 0.0 35.680530 17.816707 3.567231
833 2 0.0 27.352236 23.118306 29.853406
834 3 0.0 26.841685 23.428356 30.604943
835 3 0.0 27.015113 23.622183 29.109056
836 1 0.0 31.425722 33.590663 17.125136
837 2 0.0 32.559548 34.519989 17.837661
838 2 0.0 29.959936 34.276469 17.320184
839 2 0.0 31.428383 32.110702 17.808222
840 2 0.0 31.755019 33.455494 15.534479
841 3 0.0 32.677742 34.387530 16.894218
842 3 0.0 30.599890 34.814234 16.848094
843 3 0.0 32.257081 32.370094 17.398861
844 3 0.0 32.377122 33.989772 16.033613
845 1 0.0 13.762101 1.323789 6.193624
846 2 0.0 14.264745 1.149140 7.734321
847 2 0.0 12.327676 2.097713 6.174501
848 2 0.0 13.596248 36.443152 5.506416
849 2 0.0 14.859734 2.193233 5.359258
850 3 0.0 14.855924 1.651892 7.169212
851 3 0.0 13.049311 2.590550 6.571936
852 3 0.0 14.480936 0.059652 5.817980
853 3 0.0 15.078247 2.042027 6.281749
854 2 0.0 14.225479 33.461910 18.999412
855 3 0.0 15.047005 33.015565 18.781534
856 3 0.0 14.139445 33.357310 19.949810
857 1 0.0 14.245703 19.491671 20.308638
858 2 0.0 12.872577 20.346476 20.106812
859 2 0.0 13.961580 18.234931 21.307025
860 2 0.0 15.392994 20.451476 20.956246
861 2 0.0 14.755659 18.933801 18.864468
862 3 0.0 13.243934 19.979188 19.301334
863 3 0.0 13.436373 18.241510 20.503462
864 3 0.0 15.051771 20.742954 20.107595
865 3 0.0 13.947565 19.451329 18.837121
866 2 0.0 8.511834 9.636137 4.304383
867 3 0.0 8.336345 9.541066 5.243406
868 3 0.0 7.960956 10.372905 4.029960
869 1 0.0 22.222803 22.658224 34.537428
870 2 0.0 23.080952 23.805254 33.759737
871 2 0.0 23.139994 21.995291 35.710536
872 2 0.0 21.776134 21.502336 33.478508
873 2 0.0 20.894134 23.330013 35.200931
874 3 0.0 22.277070 24.116556 34.182188
875 3 0.0 22.991495 22.939817 35.796671
876 3 0.0 21.452334 22.383501 33.277754
877 3 0.0 21.459946 23.938978 34.720704
878 2 0.0 20.562098 1.909396 28.195280
879 3 0.0 21.369446 1.620724 27.763472
880 3 0.0 20.652261 1.606181 29.101664
881 2 0.0 9.426802 23.237358 33.725787
882 3 0.0 9.019594 22.835528 32.954869
883 3 0.0 9.844223 22.505762 34.186358
884 2 0.0 3.184960 27.790005 26.550063
885 3 0.0 4.059447 28.116519 26.325874
886 3 0.0 3.317920 27.274946 27.349209
887 2 0.0 20.218553 7.554678 9.033542
888 3 0.0 20.645083 7.400093 8.164879
889 3 0.0 20.082515 8.517663 9.154181
890 3 0.0 20.810900 7.225980 9.741697
891 2 0.0 2.832451 20.538681 7.089780
892 3 0.0 1.984489 20.404634 6.660137
893 3 0.0 3.025933 21.469323 6.955356
894 2 0.0 28.073068 32.087023 31.360158
895 3 0.0 27.369514 32.431428 31.915133
896 3 0.0 28.822164 32.660612 31.537502
897 2 0.0 1.150703 10.389877 15.691451
898 3 0.0 1.527375 9.684401 15.160394
899 3 0.0 0.976792 9.983173 16.543476
900 2 0.0 18.176200 1.256141 7.134598
901 3 0.0 19.056577 1.439192 6.798401
902 3 0.0 18.266270 1.312956 8.088674
903 2 0.0 29.581026 35.204749 1.948278
904 3 0.0 29.764668 36.077616 2.303213
905 3 0.0 29.689976 35.302897 0.999543
906 2 0.0 35.982519 15.805978 23.342047
907 3 0.0 35.191612 15.873070 22.802079
908 3 0.0 35.747378 16.235528 24.167755
909 2 0.0 27.825829 18.633068 17.009705
910 3 0.0 28.730451 18.774714 17.298142
911 3 0.0 27.740965 17.679139 16.943239
912 2 0.0 35.801788 23.879731 20.810812
913 3 0.0 35.741154 23.115375 20.233159
914 3 0.0 36.586872 23.720035 21.339717
915 2 0.0 29.646782 5.416285 31.332771
916 3 0.0 28.901473 5.964187 31.589513
917 3 0.0 29.283086 4.799450 30.693365
918 2 0.0 20.713668 25.397253 27.490438
919 3 0.0 21.057185 26.236468 27.805580
920 3 0.0 19.873045 25.618928 27.083235
921 1 0.0 8.473825 24.682296 27.900167
922 2 0.0 9.003721 24.488681 29.429423
923 2 0.0 7.130859 25.606056 27.903340
924 2 0.0 8.129478 23.225170 27.255876
925 2 0.0 9.631241 25.409275 27.012029
926 3 0.0 9.627106 24.911917 28.834560
927 3 0.0 7.913525 26.026757 28.266720
928 3 0.0 9.040499 23.339849 27.536036
929 3 0.0 9.861585 25.255906 27.931278
930 2 0.0 4.247751 1.989274 29.174881
931 3 0.0 4.300080 2.684700 28.515151
932 3 0.0 4.413932 2.435374 30.008535
933 2 0.0 11.339617 23.081580 17.866347
934 3 0.0 11.715782 22.407563 18.437137
935 3 0.0 10.950030 22.590965 17.138941
936 2 0.0 33.005897 33.054262 1.699307
937 3 0.0 32.430035 33.502635 2.322961
938 3 0.0 33.433504 33.763484 1.213758
939 2 0.0 35.684521 17.929080 9.932350
940 3 0.0 34.833616 18.112144 9.527321
941 3 0.0 35.682966 18.447428 10.740380
942 2 0.0 19.495908 35.607472 9.455365
943 3 0.0 18.784349 35.162458 9.921462
944 3 0.0 19.509219 35.196722 8.587778
945 2 0.0 20.248371 33.081069 20.000728
946 3 0.0 19.715829 33.879139 20.033630
947 3 0.0 20.946961 33.231273 20.641829
948 2 0.0 23.263820 12.839766 17.015145
949 3 0.0 22.616361 12.390870 17.563679
950 3 0.0 23.930556 12.172927 16.835176
951 1 0.0 32.497202 15.982710 15.810217
952 2 0.0 30.867617 15.969478 15.775922
953 2 0.0 33.025267 17.518473 15.949778
954 2 0.0 33.074965 15.332655 14.431624
955 2 0.0 33.020960 15.110232 17.083544
956 3 0.0 31.262223 15.476317 16.498886
957 3 0.0 32.467071 17.214421 16.669201
958 3 0.0 32.523156 14.747653 14.955914
959 3 0.0 32.066839 15.155252 16.987491
960 2 0.0 28.060081 32.712597 36.352769
961 3 0.0 27.872104 33.574173 35.973360
962 3 0.0 27.460542 32.642326 0.511154
963 1 0.0 3.694585 5.331195 25.788668
964 2 0.0 4.121940 3.790755 26.106963
965 2 0.0 4.949177 6.112038 25.100785
966 2 0.0 3.284553 6.079348 27.177567
967 2 0.0 2.422668 5.342640 24.769355
968 3 0.0 3.376117 3.889947 25.510717
969 3 0.0 4.632281 5.346753 24.615485
970 3 0.0 2.753697 5.309862 26.959202
971 3 0.0 2.741169 4.469823 25.010908
972 2 0.0 2.082382 0.298957 7.004795
973 3 0.0 1.211136 0.516364 7.344302
974 3 0.0 2.638965 1.029289 7.284848
975 1 0.0 36.470321 21.649200 30.180907
976 2 0.0 36.253060 23.094703 29.459647
977 2 0.0 36.065559 20.458352 29.144109
978 2 0.0 35.528728 21.557300 31.508256
979 2 0.0 1.445855 21.486442 30.611616
980 3 0.0 0.563303 22.915559 29.746904
981 3 0.0 0.187697 21.031523 28.846349
982 3 0.0 36.169949 22.271722 31.514367
983 3 0.0 1.228745 22.314618 30.177348
984 2 0.0 1.202594 33.122688 35.317577
985 3 0.0 1.247250 32.181103 35.135853
986 3 0.0 2.110256 33.425869 35.241218
987 2 0.0 21.649323 35.445623 1.931821
988 3 0.0 22.601848 35.531907 2.014586
989 3 0.0 21.306622 35.737619 2.779697
990 2 0.0 16.114741 6.948652 12.938044
991 3 0.0 16.187054 7.166665 12.005927
992 3 0.0 16.140570 5.989339 12.963562
993 2 0.0 13.012515 33.998814 32.086644
994 3 0.0 12.296368 33.409792 31.838074
995 3 0.0 13.114610 33.867941 33.032186
996 2 0.0 20.580793 11.646073 1.484273
997 3 0.0 21.271368 12.307195 1.571579
998 3 0.0 19.860459 11.977533 2.025432
999 2 0.0 17.118152 24.594547 9.684485
1000 3 0.0 16.188985 24.494398 9.464898
1001 3 0.0 17.206516 25.514817 9.943124
1002 2 0.0 35.592064 7.589365 5.709192
1003 3 0.0 35.568534 6.655761 5.931522
1004 3 0.0 36.490265 7.742195 5.406739
1005 2 0.0 33.798826 35.634032 5.505126
1006 3 0.0 34.530548 36.255149 5.485183
1007 3 0.0 33.025994 36.165942 5.301653
1008 2 0.0 9.951523 12.548143 1.388360
1009 3 0.0 10.863084 12.848278 1.364374
1010 3 0.0 9.848498 12.160906 2.260732
1011 2 0.0 17.359018 14.825584 19.023321
1012 3 0.0 17.847544 15.595514 18.723072
1013 3 0.0 16.831647 14.564330 18.264884
1014 2 0.0 8.851934 34.550174 12.010478
1015 3 0.0 8.915400 33.651114 12.341028
1016 3 0.0 9.710032 34.937088 12.199065
1017 2 0.0 4.119102 16.701130 20.918155
1018 3 0.0 3.689871 16.168752 20.244409
1019 3 0.0 4.772970 17.214953 20.438528
1020 1 0.0 6.331725 1.901607 2.333627
1021 2 0.0 6.524335 1.318658 3.843585
1022 2 0.0 5.094691 1.128441 1.606398
1023 2 0.0 7.699446 1.661680 1.480004
1024 2 0.0 6.008427 3.497650 2.404522
1025 3 0.0 6.329706 2.257351 3.792845
1026 3 0.0 4.861702 1.602632 2.407934
1027 3 0.0 7.801253 2.204410 2.265293
1028 3 0.0 6.136932 3.071551 3.255126
1029 2 0.0 30.513804 21.815582 30.777847
1030 3 0.0 31.244959 21.204540 30.661055
1031 3 0.0 30.665299 22.210258 31.639752
1032 2 0.0 32.741754 18.814609 9.632092
1033 3 0.0 31.864523 18.476066 9.438562
1034 3 0.0 33.308950 18.402184 8.976505
1035 2 0.0 0.250280 6.556341 13.128209
1036 3 0.0 0.288809 6.167015 14.004874
1037 3 0.0 0.149205 5.807238 12.536407
1038 1 0.0 24.031748 2.363714 6.578118
1039 2 0.0 22.962372 2.284275 7.805727
1040 2 0.0 25.345137 1.469955 6.942952
1041 2 0.0 24.477283 3.914236 6.345132
1042 2 0.0 23.342200 1.786392 5.218661
1043 3 0.0 22.636342 1.962202 6.962179
1044 3 0.0 24.518126 0.983248 6.915199
1045 3 0.0 23.538724 3.741699 6.240539
1046 2 0.0 0.934891 22.014719 13.617656
1047 3 0.0 1.892821 22.041058 13.560425
1048 3 0.0 0.634453 22.520673 12.859139
1049 2 0.0 12.040301 13.262080 35.376542
1050 3 0.0 11.633200 12.392808 35.391843
1051 3 0.0 12.142153 13.463767 34.443510
1052 2 0.0 33.903787 20.878547 16.903885
1053 3 0.0 34.708611 20.420272 17.156554
1054 3 0.0 33.228997 20.517077 17.483193
1055 2 0.0 13.802685 2.914640 31.166722
1056 3 0.0 14.384073 3.675844 31.102239
1057 3 0.0 13.737349 2.584822 30.267527
1058 2 0.0 21.119138 33.094014 24.324880
1059 3 0.0 21.527099 33.258978 23.471677
1060 3 0.0 20.526112 32.355287 24.169310
1061 2 0.0 30.840249 28.863682 21.232058
1062 3 0.0 30.006303 29.121677 21.631523
1063 3 0.0 30.918831 27.926184 21.423168
1064 1 0.0 22.013973 3.090047 2.176064
1065 2 0.0 21.436167 3.688157 3.577957
1066 2 0.0 22.360496 1.508200 2.362032
1067 2 0.0 23.366920 3.897107 1.757628
1068 2 0.0 20.892309 3.266723 1.006638
1069 3 0.0 20.835907 3.752185 2.831507
1070 3 0.0 21.442871 1.743531 2.517548
1071 3 0.0 22.578654 4.439490 1.835458
1072 3 0.0 20.632689 3.594713 1.870710
1073 2 0.0 19.624814 6.386998 27.484075
1074 3 0.0 19.149676 5.552911 27.472115
1075 3 0.0 19.393026 6.783974 28.326859
1076 1 0.0 0.513918 7.951547 20.710662
1077 2 0.0 36.213031 6.767454 21.392244
1078 2 0.0 0.593613 9.224141 21.726069
1079 2 0.0 36.406992 8.415747 19.311241
1080 2 0.0 2.018204 7.398846 20.413094
1081 3 0.0 0.530110 6.525804 21.182753
1082 3 0.0 0.952221 8.404416 22.073994
1083 3 0.0 0.077941 7.492116 19.348781
1084 3 0.0 1.424372 6.761730 20.816884
1085 2 0.0 24.200427 10.330654 0.731669
1086 3 0.0 23.266985 10.106625 0.741505
1087 3 0.0 24.650671 9.491322 0.851672
1088 2 0.0 27.134752 12.343075 29.245187
1089 3 0.0 26.309561 12.722924 28.934744
1090 3 0.0 27.376886 12.880226 30.003105
1091 2 0.0 23.019730 1.424457 36.290140
1092 3 0.0 22.777680 0.752062 35.649128
1093 3 0.0 23.774132 1.054135 0.166104
1094 2 0.0 10.937498 26.480201 23.847390
1095 3 0.0 11.726779 26.957122 24.114190
1096 3 0.0 10.434338 27.115976 23.333366
1097 1 0.0 7.670875 13.579823 35.689620
1098 2 0.0 8.915390 14.573556 36.036863
1099 2 0.0 7.388479 12.598353 0.371919
1100 2 0.0 8.041618 12.681594 34.380943
1101 2 0.0 6.338014 14.465787 35.380672
1102 3 0.0 8.085882 15.015341 35.841052
1103 3 0.0 7.302164 13.536403 0.556886
1104 3 0.0 8.039253 13.630343 34.234416
1105 3 0.0 7.122822 14.975072 35.595860
1106 2 0.0 1.649947 27.286563 15.730877
1107 3 0.0 1.529588 26.776523 14.926531
1108 3 0.0 2.584407 27.506378 15.738929
1109 2 0.0 28.670353 21.953713 25.623776
1110 3 0.0 28.929553 22.702280 25.046833
1111 3 0.0 28.893380 21.112641 25.172937
1112 3 0.0 27.702386 21.987584 25.773079
1113 2 0.0 36.398182 18.062676 31.490725
1114 3 0.0 35.636806 17.803282 32.014768
1115 3 0.0 36.484143 17.369869 30.831765
1116 1 0.0 15.836616 1.914442 17.862109
1117 2 0.0 17.014577 0.937822 18.423822
1118 2 0.0 14.511963 1.027716 17.521653
1119 2 0.0 16.351254 2.663862 16.509179
1120 2 0.0 15.468671 3.028369 18.993781
1121 3 0.0 16.735366 1.627256 19.030717
1122 3 0.0 14.800296 0.991480 18.436612
1123 3 0.0 16.875997 2.837924 17.294002
1124 3 0.0 16.157725 2.408408 19.243688
1125 1 0.0 29.738964 5.616198 16.231009
1126 2 0.0 30.292404 7.087440 15.799675
1127 2 0.0 29.886450 4.589996 14.973210
1128 2 0.0 28.170133 5.729727 16.658541
1129 2 0.0 30.606867 5.057627 17.492612
1130 3 0.0 30.750463 6.682655 16.539898
1131 3 0.0 30.710108 4.974810 15.281602
1132 3 0.0 28.773189 6.261033 17.183553
1133 2 0.0 25.346103 3.080191 19.660132
1134 3 0.0 24.872951 2.575697 20.325874
1135 3 0.0 26.208832 2.662184 19.609449
1136 2 0.0 19.854286 9.794085 29.775874
1137 3 0.0 19.135841 9.177730 29.616052
1138 3 0.0 20.430310 9.695010 29.014309
1139 2 0.0 30.356109 31.535493 28.853778
1140 3 0.0 30.753110 32.408284 28.900973
1141 3 0.0 31.053741 30.938299 29.133543
1142 1 0.0 19.404253 19.764115 4.491556
1143 2 0.0 18.864882 21.037787 5.353958
1144 2 0.0 19.778402 20.249838 2.981263
1145 2 0.0 18.242281 18.623046 4.423119
1146 2 0.0 20.731448 19.145787 5.207884
1147 3 0.0 19.648743 20.611061 5.707607
1148 3 0.0 20.272523 20.683296 3.680947
1149 3 0.0 18.538960 18.847409 5.308129
1150 3 0.0 20.346202 19.904098 5.653025
1151 2 0.0 11.982382 0.076064 18.403872
1152 3 0.0 11.565877 0.838144 18.812965
1153 3 0.0 12.817664 0.409571 18.068198
1154 2 0.0 22.126498 14.800986 26.282027
1155 3 0.0 22.717134 15.097072 26.978505
1156 3 0.0 22.172801 13.842791 26.318350
1157 2 0.0 25.515082 25.104223 3.993996
1158 3 0.0 25.702426 25.201401 3.057482
1159 3 0.0 25.724991 25.961488 4.371667
1160 2 0.0 29.786241 18.974698 6.033021
1161 3 0.0 30.366813 19.677276 6.334551
1162 3 0.0 29.153566 19.414414 5.460333
1163 2 0.0 13.882673 26.009779 15.752514
1164 3 0.0 13.317742 25.237643 15.831620
1165 3 0.0 13.581947 26.600222 16.447165
1166 2 0.0 0.548366 18.863470 17.978894
1167 3 0.0 1.484736 18.954973 17.788008
1168 3 0.0 0.491962 18.912122 18.936000
1169 2 0.0 16.619167 10.038691 27.967709
1170 3 0.0 16.595169 9.080701 27.762576
1171 3 0.0 15.821332 10.464799 27.590495
1172 3 0.0 17.415641 10.432600 27.554351
1173 1 0.0 31.295590 2.121408 5.950955
1174 2 0.0 31.329077 2.284077 4.329438
1175 2 0.0 32.516266 2.978560 6.608329
1176 2 0.0 31.463773 0.548167 6.342779
1177 2 0.0 29.873241 2.674830 6.523275
1178 3 0.0 30.521792 2.587609 4.751052
1179 3 0.0 31.886852 3.494150 6.098814
1180 3 0.0 30.699080 0.751372 5.799133
1181 3 0.0 29.977805 2.733618 5.570799
1182 2 0.0 35.798662 35.487406 30.100698
1183 3 0.0 0.047428 35.179579 30.456402
1184 3 0.0 36.038919 36.195547 29.498690
1185 2 0.0 18.437602 17.860047 0.983085
1186 3 0.0 18.139103 17.033786 0.596057
1187 3 0.0 19.383669 17.744217 1.097721
1188 2 0.0 21.613451 23.147312 24.628223
1189 3 0.0 21.593749 23.059169 25.583965
1190 3 0.0 22.527228 23.360103 24.424923
1191 1 0.0 6.137195 18.651200 28.029857
1192 2 0.0 7.629038 18.298506 27.475858
1193 2 0.0 5.985857 18.115631 29.561902
1194 2 0.0 5.022218 17.925544 27.087971
1195 2 0.0 5.911670 20.265117 27.993696
1196 3 0.0 7.411568 19.233462 27.488728
1197 3 0.0 6.683337 18.760842 29.424698
1198 3 0.0 5.595838 18.546322 26.632786
1199 3 0.0 6.769858 19.968304 27.682223
1200 2 0.0 16.591873 1.478178 12.636063
1201 3 0.0 16.794742 0.996573 11.830768
1202 3 0.0 16.130167 2.264676 12.336315
1203 2 0.0 36.157264 22.211248 22.112480
1204 3 0.0 36.024240 21.260634 22.127894
1205 3 0.0 0.060261 22.398621 22.915805
1206 2 0.0 1.860233 25.217931 24.529746
1207 3 0.0 2.386847 25.256243 25.331501
1208 3 0.0 2.408778 25.634957 23.861324
1209 2 0.0 27.359989 35.008638 17.685008
1210 3 0.0 26.490423 34.630502 17.834900
1211 3 0.0 27.529103 35.540439 18.466153
1212 2 0.0 26.663915 14.614426 13.174262
1213 3 0.0 25.846772 14.354562 12.742582
1214 3 0.0 26.707471 14.063106 13.958959
1215 2 0.0 5.634089 12.468808 34.610260
1216 3 0.0 5.500790 12.374523 35.556273
1217 3 0.0 6.259423 13.192340 34.526237
1218 2 0.0 10.936818 4.723288 34.958223
1219 3 0.0 11.282807 4.526129 34.084713
1220 3 0.0 11.707623 4.713009 35.530372
1221 2 0.0 16.134679 9.790618 19.528163
1222 3 0.0 15.201466 9.748422 19.306954
1223 3 0.0 16.554218 10.136226 18.736871
1224 2 0.0 36.296255 12.299198 23.558988
1225 3 0.0 35.351335 12.352257 23.719957
1226 3 0.0 36.481239 11.358010 23.519675
1227 1 0.0 12.039527 12.054651 16.536279
1228 2 0.0 13.215285 12.090536 15.407915
1229 2 0.0 10.808581 11.125348 16.008958
1230 2 0.0 11.499946 13.568726 16.807070
1231 2 0.0 12.634296 11.433992 17.921174
1232 3 0.0 13.481253 11.736988 16.259892
1233 3 0.0 11.652757 10.674829 16.086416
1234 3 0.0 12.432986 13.432262 16.987111
1235 2 0.0 27.240127 7.249877 24.376714
1236 3 0.0 26.620605 7.899549 24.716890
1237 3 0.0 26.835602 6.933073 23.565792
1238 2 0.0 20.529742 26.485028 34.197680
1239 3 0.0 21.194707 27.011891 34.646943
1240 3 0.0 20.021270 26.083943 34.906331
1241 2 0.0 14.099375 15.822995 20.998384
1242 3 0.0 14.941459 15.368008 21.072420
1243 3 0.0 14.202712 16.398157 20.236735
1244 2 0.0 22.864973 7.184964 2.984169
1245 3 0.0 21.933125 7.030852 2.812390
1246 3 0.0 22.941362 8.138991 3.058984
1247 2 0.0 32.484527 25.096360 20.679540
1248 3 0.0 32.974635 24.292138 20.865606
1249 3 0.0 32.482846 25.575157 21.511617
1250 2 0.0 7.595904 0.742758 11.815877
1251 3 0.0 7.211079 1.622235 11.821335
1252 3 0.0 7.837913 0.591614 10.899260
1253 2 0.0 33.191899 2.848912 20.821899
1254 3 0.0 32.778704 3.244573 21.592822
1255 3 0.0 32.458966 2.506101 20.305285
1256 2 0.0 27.382758 19.868093 13.538208
1257 3 0.0 27.167387 19.428005 12.712655
1258 3 0.0 26.756095 19.511171 14.171849
1259 2 0.0 14.555753 31.876662 36.072268
1260 3 0.0 15.180157 31.390856 35.528474
1261 3 0.0 15.076446 32.580290 36.466459
1262 1 0.0 32.052851 0.949126 29.350498
1263 2 0.0 30.493894 1.417680 29.434231
1264 2 0.0 32.928152 2.104494 28.604929
1265 2 0.0 32.157674 36.146649 28.506548
1266 2 0.0 32.631684 0.715766 30.856286
1267 3 0.0 30.915430 1.257361 30.281701
1268 3 0.0 32.485755 2.386152 29.409014
1269 3 0.0 31.616245 36.101072 29.297987
1270 2 0.0 24.971844 28.139600 24.160141
1271 3 0.0 24.733204 27.280668 24.516352
1272 3 0.0 24.686493 28.765573 24.829718
1273 2 0.0 0.177632 3.366537 16.060078
1274 3 0.0 0.472815 3.067297 16.923167
1275 3 0.0 0.832852 4.015454 15.793257
1276 2 0.0 8.487877 32.286965 19.807282
1277 3 0.0 8.831446 32.657786 20.623402
1278 3 0.0 9.177213 32.450780 19.159532
1279 2 0.0 15.493428 16.032523 30.603284
1280 3 0.0 15.302310 15.757723 29.703529
1281 3 0.0 15.747202 15.223399 31.053304
1282 1 0.0 1.519096 12.429418 8.190496
1283 2 0.0 0.826855 12.287735 9.659383
1284 2 0.0 0.601190 13.391525 7.247789
1285 2 0.0 1.644280 10.956130 7.504456
1286 2 0.0 3.004059 13.082281 8.350357
1287 3 0.0 1.709238 12.665884 9.661484
1288 3 0.0 0.932013 13.804595 8.048744
1289 3 0.0 2.109174 11.056171 8.338402
1290 3 0.0 2.522770 12.962773 9.172354
1291 2 0.0 11.840078 18.081886 29.439340
1292 3 0.0 11.799556 18.599385 30.246899
1293 3 0.0 11.251969 18.536889 28.832132
1294 2 0.0 27.107386 20.289266 30.482321
1295 3 0.0 27.705921 19.555658 30.640987
1296 3 0.0 26.231459 19.916267 30.605700
1297 2 0.0 32.678360 22.322032 19.182786
1298 3 0.0 32.012304 22.643982 18.570972
1299 3 0.0 32.309278 22.493179 20.052319
1300 2 0.0 20.667492 22.759200 21.140272
1301 3 0.0 21.314291 23.415490 20.870949
1302 3 0.0 20.006349 22.773125 20.444358
1303 2 0.0 6.231568 28.365778 36.208138
1304 3 0.0 6.423224 27.451440 35.987109
1305 3 0.0 5.436969 28.322131 0.156997
1306 2 0.0 36.581471 33.266478 22.265945
1307 3 0.0 0.483402 34.089096 22.196759
1308 3 0.0 0.668844 32.584461 22.280485
1309 2 0.0 36.530146 22.875861 0.691639
1310 3 0.0 0.896413 22.967321 0.642133
1311 3 0.0 36.380495 22.331221 1.467894
1312 2 0.0 31.155065 23.301873 26.986526
1313 3 0.0 30.532969 23.625065 26.330672
1314 3 0.0 32.018331 23.518554 26.626777
1315 2 0.0 29.053544 32.286787 2.141704
1316 3 0.0 29.735947 31.636729 2.324330
1317 3 0.0 28.636131 31.977281 1.334504
1318 2 0.0 10.475981 25.558376 16.660120
1319 3 0.0 9.672885 25.268887 16.220993
1320 3 0.0 10.199685 25.763631 17.556296
1321 1 0.0 13.385656 6.862734 15.763870
1322 2 0.0 14.049820 8.351242 15.752470
1323 2 0.0 12.349944 6.720305 14.513305
1324 2 0.0 12.581557 6.637259 17.163687
1325 2 0.0 14.561302 5.742130 15.626020
1326 3 0.0 14.675445 7.627219 15.675112
1327 3 0.0 13.258439 6.910289 14.268067
1328 3 0.0 13.519822 6.816569 17.259110
1329 3 0.0 14.866565 6.652301 15.627862
1330 2 0.0 1.081905 34.427840 17.060859
1331 3 0.0 1.711627 34.106110 17.710120
1332 3 0.0 0.223996 34.291596 17.469552
1333 1 0.0 20.691187 29.443519 22.228310
1334 2 0.0 22.175628 30.114056 22.167362
1335 2 0.0 20.449079 28.792765 23.703031
1336 2 0.0 20.574331 28.278371 21.094435
1337 2 0.0 19.565711 30.588884 21.948414
1338 3 0.0 21.449092 30.722154 22.012565
1339 3 0.0 20.621190 29.737205 23.699610
1340 3 0.0 20.762541 29.156694 20.755723
1341 3 0.0 20.473873 30.899578 21.930753
1342 2 0.0 28.551583 26.328085 35.271196
1343 3 0.0 28.535314 25.757370 34.499433
1344 3 0.0 29.230152 26.978332 35.075431
1345 2 0.0 11.207899 26.465123 30.173033
1346 3 0.0 11.519902 25.759670 29.601552
1347 3 0.0 10.690313 27.031312 29.595856
1348 2 0.0 5.825101 9.881010 16.897342
1349 3 0.0 5.804951 10.440570 16.117543
1350 3 0.0 6.446478 10.313290 17.487786
1351 2 0.0 18.250057 14.874776 33.607279
1352 3 0.0 19.194284 14.928958 33.442659
1353 3 0.0 17.862165 14.735648 32.740225
1354 1 0.0 14.157197 20.030881 35.298746
1355 2 0.0 13.683678 18.569289 35.843198
1356 2 0.0 14.138642 21.100838 36.528277
1357 2 0.0 13.138936 20.530660 34.128162
1358 2 0.0 15.667532 19.922738 34.695345
1359 3 0.0 14.567262 18.596030 35.468811
1360 3 0.0 14.723256 20.349649 0.064855
1361 3 0.0 13.595055 19.706184 33.944330
1362 3 0.0 15.308547 19.101758 35.039906
1363 1 0.0 33.922537 25.645933 24.185639
1364 2 0.0 34.006857 27.261825 23.988961
1365 2 0.0 32.415581 25.133700 23.834066
1366 2 0.0 34.278492 25.267324 25.730582
1367 2 0.0 34.989216 24.920882 23.188946
1368 3 0.0 34.605689 26.754081 23.436515
1369 3 0.0 32.873533 25.572216 23.113244
1370 3 0.0 34.975889 25.723015 25.253525
1371 3 0.0 34.972756 25.879366 23.137582
1372 2 0.0 6.199729 34.525658 34.660825
1373 3 0.0 5.360290 34.396167 35.108234
1374 3 0.0 6.517688 33.637303 34.483831
1375 1 0.0 6.830295 20.745671 5.884785
1376 2 0.0 7.298914 21.758266 7.073039
1377 2 0.0 5.356117 20.143977 6.233588
1378 2 0.0 7.900593 19.522691 5.759549
1379 2 0.0 6.765557 21.557748 4.472964
1380 3 0.0 7.234058 22.157085 6.202213
1381 3 0.0 5.395296 21.099688 6.151846
1382 3 0.0 8.266821 20.398547 5.616879
1383 3 0.0 7.034764 22.082159 5.230671
1384 2 0.0 25.523924 14.576978 31.322922
1385 3 0.0 26.479981 14.554181 31.239052
1386 3 0.0 25.352912 15.298768 31.932326
1387 2 0.0 32.795516 12.222985 3.523393
1388 3 0.0 32.564568 11.604204 4.220080
1389 3 0.0 33.630182 12.603544 3.806427
1390 1 0.0 27.003207 14.463612 17.602640
1391 2 0.0 28.169114 13.340854 17.794931
1392 2 0.0 27.594078 15.932412 17.990452
1393 2 0.0 25.743418 14.110727 18.574907
1394 2 0.0 26.506219 14.470454 16.050269
1395 3 0.0 27.817571 13.412302 16.904475
1396 3 0.0 28.048736 15.489420 17.270282
1397 3 0.0 25.960206 13.433588 17.929859
1398 3 0.0 27.196215 13.834387 16.252566
1399 1 0.0 34.165409 9.352206 19.678225
1400 2 0.0 35.191931 10.224365 18.760352
1401 2 0.0 33.625229 8.073441 18.823903
1402 2 0.0 32.902746 10.284882 20.117200
1403 2 0.0 34.941730 8.826136 21.011446
1404 3 0.0 35.569667 9.874036 19.570404
1405 3 0.0 34.576487 8.105018 18.949246
1406 3 0.0 33.761141 10.600701 20.408773
1407 1 0.0 16.099734 31.427336 12.499194
1408 2 0.0 16.200159 31.668896 14.108065
1409 2 0.0 14.560334 31.649340 12.011482
1410 2 0.0 16.566859 29.905700 12.148030
1411 2 0.0 17.071584 32.485409 11.729201
1412 3 0.0 16.744333 32.253391 13.575298
1413 3 0.0 14.969545 32.413669 12.423730
1414 3 0.0 17.233974 30.445913 12.577828
1415 3 0.0 17.069949 32.558489 12.686414
1416 2 0.0 13.666159 16.244695 16.370762
1417 3 0.0 13.745326 16.457942 15.438100
1418 3 0.0 12.903197 15.664209 16.421020
1419 1 0.0 31.911945 7.141802 8.490598
1420 2 0.0 32.829848 5.838325 8.830163
1421 2 0.0 32.473540 8.431321 9.314401
1422 2 0.0 30.369033 6.848342 8.926721
1423 2 0.0 31.975360 7.449218 6.891106
1424 3 0.0 32.810506 6.090821 7.904166
1425 3 0.0 33.101301 8.033142 8.706973
1426 3 0.0 30.726296 6.246698 8.269463
1427 2 0.0 16.814651 7.709412 2.378822
1428 3 0.0 17.623132 7.205435 2.260646
1429 3 0.0 16.592129 8.017623 1.497295
1430 2 0.0 32.389617 19.773950 14.451735
1431 3 0.0 31.449544 19.955516 14.521714
1432 3 0.0 32.650205 20.171943 13.617891
1433 2 0.0 16.452732 21.662850 27.597883
1434 3 0.0 16.036523 21.523507 28.451671
1435 3 0.0 16.197829 22.554147 27.348455
1436 2 0.0 31.685934 13.146254 24.076082
1437 3 0.0 31.732888 13.523479 23.194551
1438 3 0.0 32.594556 13.144699 24.385927
1439 1 0.0 3.979555 1.324468 9.633306
1440 2 0.0 3.941679 2.021724 8.160452
1441 2 0.0 3.933161 36.291576 9.468426
1442 2 0.0 2.692142 1.819315 10.501980
1443 2 0.0 5.351238 1.753341 10.402367
1444 3 0.0 4.720544 2.222568 8.684504
1445 3 0.0 4.682340 0.132708 9.048777
1446 3 0.0 3.281809 2.520483 10.215176
1447 3 0.0 5.247239 2.122284 9.522216
1448 2 0.0 13.737756 27.519053 32.198666
1449 3 0.0 13.110430 26.816679 32.012298
1450 3 0.0 14.598046 27.099928 32.122270
1451 2 0.0 14.757586 31.562125 2.838309
1452 3 0.0 15.525509 31.166366 2.419658
1453 3 0.0 15.122293 32.144099 3.509051
1454 2 0.0 2.750339 16.756395 2.582533
1455 3 0.0 2.716195 17.206674 1.735371
1456 3 0.0 2.423170 17.403025 3.212160
1457 2 0.0 12.759638 20.072584 8.783781
1458 3 0.0 12.595120 20.662673 9.522921
1459 3 0.0 13.453232 20.505052 8.280294
1460 2 0.0 31.777948 8.292359 22.510547
1461 3 0.0 31.912010 8.623853 21.619627
1462 3 0.0 31.707925 7.340721 22.405277
1463 1 0.0 10.421099 8.333819 34.975751
1464 2 0.0 11.450305 8.437891 36.235434
1465 2 0.0 11.214477 7.762040 33.671711
1466 2 0.0 9.820379 9.811738 34.641399
1467 2 0.0 9.199234 7.323608 35.354458
1468 3 0.0 10.696596 7.859690 36.374027
1469 3 0.0 11.207378 7.175532 34.431683
1470 3 0.0 9.634092 9.488683 35.526008
1471 3 0.0 9.855463 7.443329 36.044842
1472 2 0.0 30.174466 36.118657 34.985961
1473 3 0.0 29.236756 36.165955 35.186119
1474 3 0.0 30.210581 35.867354 34.060141
1475 2 0.0 15.274394 5.822501 20.383772
1476 3 0.0 14.995480 5.890263 19.467685
1477 3 0.0 15.628278 4.933588 20.462502
1478 2 0.0 26.262175 1.388287 12.308621
1479 3 0.0 25.962020 2.298840 12.259632
1480 3 0.0 25.688992 0.912983 11.702694
1481 1 0.0 13.791097 17.034965 12.444810
1482 2 0.0 12.430379 17.019290 11.547536
1483 2 0.0 14.993599 17.735266 11.596007
1484 2 0.0 14.211125 15.505742 12.821578
1485 2 0.0 13.529285 17.879561 13.814121
1486 3 0.0 12.364048 17.498406 12.376782
1487 3 0.0 14.229556 18.294576 11.754153
1488 3 0.0 13.346509 15.778485 13.137251
1489 3 0.0 12.774664 17.819854 13.223712
1490 2 0.0 22.000061 16.232288 13.276164
1491 3 0.0 22.390783 16.806205 12.613174
1492 3 0.0 21.521066 16.827398 13.857549
1493 2 0.0 17.776715 21.846266 19.934389
1494 3 0.0 18.293872 22.187259 20.667787
1495 3 0.0 17.616469 22.611079 19.376732
1496 1 0.0 8.224358 13.388184 21.542765
1497 2 0.0 6.850062 12.949686 22.301665
1498 2 0.0 9.212859 12.097922 21.420328
1499 2 0.0 8.966023 14.561734 22.396939
1500 2 0.0 7.868489 13.943393 20.052127
1501 3 0.0 6.731298 13.290412 21.412058
1502 3 0.0 8.360372 11.998158 20.990314
1503 3 0.0 8.081809 14.778651 22.092451
1504 3 0.0 7.111842 13.661719 20.571498
1505 2 0.0 12.852778 27.797159 17.776548
1506 3 0.0 12.266211 27.219947 17.282216
1507 3 0.0 13.464516 28.138129 17.119953
1508 2 0.0 12.805808 5.313706 1.398753
1509 3 0.0 13.545149 4.841765 1.788940
1510 3 0.0 13.132359 5.609795 0.545937
1511 2 0.0 14.812983 25.245127 6.342286
1512 3 0.0 14.602693 24.379962 5.983305
1513 3 0.0 14.016270 25.513547 6.805750
1514 2 0.0 21.712351 4.756928 17.020063
1515 3 0.0 22.595656 4.857176 17.382447
1516 3 0.0 21.288996 4.112973 17.592508
1517 1 0.0 1.963531 34.611214 27.140720
1518 2 0.0 0.683743 33.612883 27.290311
1519 2 0.0 1.733916 35.601786 25.866771
1520 2 0.0 3.315227 33.730616 26.907561
1521 2 0.0 2.121236 35.499573 28.498235
1522 3 0.0 0.850054 34.175917 28.049873
1523 3 0.0 1.069130 35.666845 26.556283
1524 3 0.0 2.853692 33.555168 27.730849
1525 3 0.0 1.387186 34.880896 28.501224
1526 1 0.0 33.025516 8.518609 2.194872
1527 2 0.0 32.967623 7.233642 3.196076
1528 2 0.0 32.059235 8.250167 0.909906
1529 2 0.0 34.557656 8.741782 1.685323
1530 2 0.0 32.517551 9.848844 2.988185
1531 3 0.0 32.683520 8.064098 3.584956
1532 3 0.0 31.614672 8.241292 1.760720
1533 3 0.0 34.434223 8.796096 2.635804
1534 3 0.0 32.515346 9.041292 3.507276
1535 2 0.0 32.133728 10.628289 36.073379
1536 3 0.0 32.342124 11.529909 35.817933
1537 3 0.0 32.125172 10.139854 35.246967
1538 2 0.0 8.985653 1.011094 20.977255
1539 3 0.0 8.460871 0.219703 20.734965
1540 3 0.0 9.570243 1.247005 20.226922
1541 3 0.0 9.539477 0.798839 21.757401
1542 2 0.0 17.939069 10.998365 11.123913
1543 3 0.0 17.649518 11.242945 10.241904
1544 3 0.0 18.582746 11.670042 11.360830
1545 2 0.0 26.144085 4.615929 29.839455
1546 3 0.0 25.962938 3.681728 29.712753
1547 3 0.0 25.284891 5.038925 29.772674
1548 2 0.0 0.351435 27.488275 24.795379
1549 3 0.0 1.197985 27.060900 24.944724
1550 3 0.0 0.496190 28.047794 24.028839
1551 2 0.0 19.477039 36.107863 28.261813
1552 3 0.0 19.918298 35.271238 28.097651
1553 3 0.0 19.397512 36.154602 29.217371
1554 1 0.0 1.739481 9.481093 2.985909
1555 2 0.0 3.215489 9.359604 3.666746
1556 2 0.0 1.856505 9.209542 1.382953
1557 2 0.0 1.144661 10.976997 3.241568
1558 2 0.0 0.741269 8.378230 3.652366
1559 3 0.0 2.561512 8.742524 4.003088
1560 3 0.0 2.142054 8.481465 1.939700
1561 3 0.0 1.338714 10.476096 4.037207
1562 3 0.0 1.636997 8.375825 3.997715
1563 2 0.0 0.730118 16.422114 0.337974
1564 3 0.0 0.263241 15.593329 0.208583
1565 3 0.0 1.554132 16.170603 0.761463
1566 2 0.0 24.052575 23.004339 7.846041
1567 3 0.0 23.237250 23.287239 8.266531
1568 3 0.0 24.417943 23.806348 7.465400
1569 1 0.0 18.363569 8.631956 34.269695
1570 2 0.0 19.055469 7.526721 33.291620
1571 2 0.0 18.539598 8.169159 35.822670
1572 2 0.0 16.777179 8.753610 33.915483
1573 2 0.0 19.082031 10.078334 34.049007
1574 3 0.0 19.420588 8.412115 33.225542
1575 3 0.0 19.360707 8.302814 35.343592
1576 3 0.0 17.371760 8.962386 33.191269
1577 3 0.0 19.430513 9.365548 33.508546
1578 2 0.0 19.842133 5.382785 7.162179
1579 3 0.0 20.057933 6.303371 6.996189
1580 3 0.0 19.754222 5.324447 8.116363
1581 2 0.0 8.968249 2.711782 0.351513
1582 3 0.0 8.603802 3.598190 0.556109
1583 3 0.0 9.931583 2.793270 0.191053
1584 3 0.0 8.538302 2.370797 36.127639
1585 2 0.0 21.383375 5.043733 35.775525
1586 3 0.0 21.157520 5.596209 35.023621
1587 3 0.0 22.280554 4.751534 35.598636
1588 2 0.0 18.767350 1.517287 1.179030
1589 3 0.0 18.136906 1.147398 1.801382
1590 3 0.0 18.246925 2.112084 0.634077
1591 1 0.0 35.227539 26.875825 18.834368
1592 2 0.0 33.790542 27.609044 18.601282
1593 2 0.0 36.375608 28.002188 19.099217
1594 2 0.0 35.614667 26.006065 17.511285
1595 2 0.0 35.129340 25.886003 20.125689
1596 3 0.0 33.821433 27.004522 19.346398
1597 3 0.0 35.654013 28.001685 19.732384
1598 3 0.0 34.795266 25.748995 17.940350
1599 3 0.0 34.321686 26.360692 19.916007
1600 1 0.0 27.216252 1.957087 32.312517
1601 2 0.0 27.100522 0.600675 31.416050
1602 2 0.0 25.866502 2.132439 33.209359
1603 2 0.0 27.386187 3.245643 31.328827
1604 2 0.0 28.511797 1.849591 33.295832
1605 3 0.0 27.840967 0.621452 32.026713
1606 3 0.0 26.360973 1.326179 33.373802
1607 3 0.0 28.075988 2.582466 31.251560
1608 3 0.0 28.368303 1.088121 32.729111
1609 2 0.0 30.661153 20.243182 0.074258
1610 3 0.0 30.173278 20.759847 36.016868
1611 3 0.0 31.411462 19.895396 36.174816
1612 2 0.0 19.017991 9.781044 22.088379
1613 3 0.0 19.128303 8.832327 22.185168
1614 3 0.0 18.878346 9.912390 21.147715
1615 2 0.0 9.192157 28.547670 6.423823
1616 3 0.0 9.780657 28.667660 7.172736
1617 3 0.0 8.903779 27.634277 6.488246
1618 2 0.0 18.843128 35.296223 2.193527
1619 3 0.0 18.481671 34.504195 1.789001
1620 3 0.0 18.832722 35.111573 3.135544
1621 2 0.0 8.031237 23.042928 23.995022
1622 3 0.0 8.394305 23.925666 23.892275
1623 3 0.0 8.552638 22.648549 24.698020
1624 2 0.0 8.581286 19.886480 19.731197
1625 3 0.0 8.220629 20.014641 18.850798
1626 3 0.0 7.872503 19.464916 20.222634
1627 2 0.0 25.597609 31.111421 21.506081
1628 3 0.0 25.464418 30.411431 20.862749
1629 3 0.0 25.791664 31.889558 20.978402
1630 1 0.0 31.581548 31.725984 34.259100
1631 2 0.0 32.969462 32.480906 34.659956
1632 2 0.0 30.500427 31.899299 35.466593
1633 2 0.0 31.875556 30.141201 34.016359
1634 2 0.0 30.980746 32.382529 32.893492
1635 3 0.0 32.545782 32.807177 33.862684
1636 3 0.0 30.807095 32.720685 35.075596
1637 3 0.0 32.358974 30.736615 33.438959
1638 3 0.0 31.802681 32.770418 33.202629
1639 2 0.0 10.297121 18.549860 13.187458
1640 3 0.0 10.258605 17.780668 12.614343
1641 3 0.0 10.492540 19.280762 12.596533
1642 2 0.0 4.039556 23.461196 2.882286
1643 3 0.0 3.322426 22.995831 3.319049
1644 3 0.0 4.806123 23.296255 3.436154
1645 2 0.0 21.083841 30.879213 10.953968
1646 3 0.0 20.281981 31.412231 11.136485
1647 3 0.0 21.621885 30.824046 11.771199
1648 3 0.0 21.609429 31.323952 10.256569
1649 2 0.0 27.118699 16.196147 22.139727
1650 3 0.0 27.778408 16.091126 21.450268
1651 3 0.0 26.790982 15.307564 22.296639
1652 2 0.0 28.467732 20.693415 3.299527
1653 3 0.0 27.962309 21.491312 3.127750
1654 3 0.0 28.200866 20.085499 2.606115
1655 2 0.0 5.731830 16.315295 23.931643
1656 3 0.0 6.619332 16.592966 23.693234
1657 3 0.0 5.193797 16.550838 23.172274
1658 2 0.0 6.814880 5.328568 16.668474
1659 3 0.0 7.546658 5.052297 16.111898
1660 3 0.0 6.904995 4.799740 17.464602
1661 2 0.0 28.743806 28.865918 25.713784
1662 3 0.0 28.066869 29.014302 25.049450
1663 3 0.0 29.384724 28.296821 25.281404
1664 2 0.0 1.149668 1.040706 20.367205
1665 3 0.0 0.594267 0.635899 19.696936
1666 3 0.0 1.825571 0.383588 20.548731
1667 1 0.0 25.178331 28.091702 0.265606
1668 2 0.0 24.881478 29.509723 1.012596
1669 2 0.0 23.809452 27.208362 0.212869
1670 2 0.0 26.322044 27.272765 1.089113
1671 2 0.0 25.700349 28.375958 35.335930
1672 3 0.0 25.194888 29.585312 0.108351
1673 3 0.0 23.760985 28.058577 36.357799
1674 3 0.0 26.596527 28.131258 0.758585
1675 2 0.0 34.166224 14.084111 22.246390
1676 3 0.0 34.048724 15.030880 22.139514
1677 3 0.0 34.027055 13.723586 21.367610
1678 2 0.0 30.314596 9.299335 20.247257
1679 3 0.0 29.960104 9.178903 19.363270
1680 3 0.0 30.302365 8.420453 20.633284
1681 2 0.0 29.828524 11.095727 17.516634
1682 3 0.0 29.253534 10.330140 17.446906
1683 3 0.0 30.451626 10.866408 18.210000
1684 2 0.0 26.255400 15.532540 7.021588
1685 3 0.0 25.347753 15.221576 7.054428
1686 3 0.0 26.780791 14.768241 7.269402
1687 1 0.0 36.487768 36.217483 34.820283
1688 2 0.0 36.460750 35.927617 36.424075
1689 2 0.0 36.562628 34.803024 34.013685
1690 2 0.0 1.205247 0.533773 34.453520
1691 2 0.0 35.134363 0.429353 34.389854
1692 3 0.0 35.696139 36.397960 36.083860
1693 3 0.0 35.790716 34.910007 34.574316
1694 3 0.0 0.591521 0.938802 35.070684
1695 2 0.0 15.870557 32.072744 15.686284
1696 3 0.0 16.444338 32.836818 15.778841
1697 3 0.0 15.735828 31.762671 16.584784
1698 2 0.0 9.043368 13.076855 14.464636
1699 3 0.0 8.239985 13.599799 14.516665
1700 3 0.0 9.127696 12.857155 13.533927
1701 2 0.0 6.915988 27.234411 13.469733
1702 3 0.0 7.187700 27.988698 12.941696
1703 3 0.0 6.814500 26.520773 12.835683
1704 2 0.0 35.659756 24.555484 15.079544
1705 3 0.0 36.352271 25.157810 15.361016
1706 3 0.0 35.991877 23.683874 15.306683
1707 2 0.0 34.566343 34.606353 8.818014
1708 3 0.0 35.520463 34.569553 8.917523
1709 3 0.0 34.224451 34.274545 9.651449
1710 2 0.0 19.293591 25.908405 5.900628
1711 3 0.0 19.895566 26.149049 6.608665
1712 3 0.0 18.419573 25.993083 6.288600
1713 2 0.0 16.717566 33.978936 34.123095
1714 3 0.0 16.627144 33.023465 34.100775
1715 3 0.0 16.368911 34.273491 33.278538
1716 2 0.0 15.766050 34.405317 25.178766
1717 3 0.0 15.790789 35.122602 24.541201
1718 3 0.0 15.320693 33.689869 24.718992
1719 2 0.0 0.937858 27.892624 33.436221
1720 3 0.0 0.796848 28.239523 34.320176
1721 3 0.0 0.308655 27.171878 33.357304
1722 2 0.0 35.376249 32.143682 14.440996
1723 3 0.0 35.243548 31.298514 14.005470
1724 3 0.0 34.583663 32.270097 14.967708
1725 1 0.0 31.769208 30.674681 7.067032
1726 2 0.0 30.896233 31.804096 7.853947
1727 2 0.0 31.014002 29.233973 7.171551
1728 2 0.0 33.248364 30.563060 7.742709
1729 2 0.0 31.918234 31.097595 5.499922
1730 3 0.0 31.033145 31.975557 6.919358
1731 3 0.0 30.507065 29.927654 6.743274
1732 3 0.0 33.028616 31.427572 7.387844
1733 3 0.0 31.415025 31.711566 6.039755
1734 2 0.0 17.789662 2.836518 4.438912
1735 3 0.0 17.534225 2.420414 5.265477
1736 3 0.0 18.038655 2.105683 3.868402
1737 1 0.0 21.314454 25.601647 15.821342
1738 2 0.0 20.751150 25.246972 17.309225
1739 2 0.0 21.022898 27.170706 15.489757
1740 2 0.0 20.563998 24.664737 14.718656
1741 2 0.0 22.919768 25.324174 15.767732
1742 3 0.0 21.693910 25.111225 17.189324
1743 3 0.0 21.575364 27.014488 16.259158
1744 3 0.0 21.057480 24.186419 15.388945
1745 1 0.0 2.095411 33.738064 8.814751
1746 2 0.0 1.181310 32.413560 8.555893
1747 2 0.0 1.225412 35.073716 8.474110
1748 2 0.0 3.410869 33.686706 7.853588
1749 2 0.0 2.564053 33.778275 10.375410
1750 3 0.0 1.501649 32.516041 9.455049
1751 3 0.0 0.861390 34.518282 9.167349
1752 3 0.0 3.327749 32.952995 8.467070
1753 3 0.0 2.018324 33.025980 10.134927
1754 2 0.0 11.536199 30.926910 4.445742
1755 3 0.0 10.919308 30.326518 4.020802
1756 3 0.0 11.889245 31.457270 3.727635
1757 1 0.0 19.968457 32.619909 33.406798
1758 2 0.0 19.145998 33.397320 34.579869
1759 2 0.0 19.361163 33.033666 31.951841
1760 2 0.0 19.824500 31.010044 33.617777
1761 2 0.0 21.542168 33.038606 33.477706
1762 3 0.0 20.086463 33.587578 34.549411
1763 3 0.0 19.708431 33.764030 32.469116
1764 3 0.0 20.231321 31.480307 34.349180
1765 3 0.0 20.981814 33.453542 34.137578
1766 2 0.0 0.844461 16.540068 12.959306
1767 3 0.0 0.230826 15.969106 13.427338
1768 3 0.0 1.021259 17.257319 13.572407
1769 2 0.0 33.262093 35.445201 24.891686
1770 3 0.0 33.588420 34.906875 24.166899
1771 3 0.0 32.380459 35.708585 24.617915
1772 2 0.0 30.961261 20.965099 8.705686
1773 3 0.0 30.635783 21.724637 9.194323
1774 3 0.0 30.976007 20.253067 9.349420
1775 2 0.0 21.574308 7.897400 5.403287
1776 3 0.0 22.278162 8.367471 5.856303
1777 3 0.0 21.715637 6.975409 5.630352
1778 2 0.0 35.199695 1.379048 23.702217
1779 3 0.0 35.606911 0.792180 24.343592
1780 3 0.0 35.332599 2.258852 24.062609
1781 2 0.0 35.887810 12.847824 33.917706
1782 3 0.0 35.078098 13.180540 34.358235
1783 3 0.0 35.868477 11.868019 33.914667
1784 3 0.0 0.083418 13.148898 34.423258
1785 2 0.0 10.302144 5.492276 28.655581
1786 3 0.0 9.385139 5.229104 28.548616
1787 3 0.0 10.643942 4.904012 29.332870
1788 1 0.0 9.280812 4.248942 32.315377
1789 2 0.0 8.377066 5.604601 32.363656
1790 2 0.0 9.483678 3.677019 33.828205
1791 2 0.0 10.735563 4.588684 31.663322
1792 2 0.0 8.526942 3.125464 31.406324
1793 3 0.0 8.004651 4.886947 31.846085
1794 3 0.0 8.571285 3.734959 33.535322
1795 3 0.0 9.984078 4.763802 31.092180
1796 3 0.0 8.060653 3.960595 31.488369
1797 2 0.0 17.460547 12.948142 31.563761
1798 3 0.0 17.806675 12.478048 32.325867
1799 3 0.0 16.723040 12.411399 31.264445
1800 1 0.0 18.816942 33.098133 6.993107
1801 2 0.0 17.588447 34.167457 7.058270
1802 2 0.0 19.657607 33.150676 8.388608
1803 2 0.0 19.801873 33.477154 5.750869
1804 2 0.0 18.219843 31.597246 6.774682
1805 3 0.0 17.324334 33.253363 6.930685
1806 3 0.0 18.732090 32.913097 8.481205
1807 3 0.0 18.894898 33.281539 5.504430
1808 3 0.0 17.560260 32.292981 6.824720
1809 2 0.0 0.330149 5.079368 0.885328
1810 3 0.0 0.590714 5.225586 1.797647
1811 3 0.0 0.591712 4.173970 0.702464
1812 2 0.0 22.710104 10.650299 4.939292
1813 3 0.0 22.612152 9.952136 5.590885
1814 3 0.0 21.810553 10.912758 4.730671
1815 2 0.0 9.574189 16.950449 28.636741
1816 3 0.0 8.692041 17.250326 28.405463
1817 3 0.0 9.658936 17.150423 29.571850
1818 1 0.0 8.564656 5.781904 10.804557
1819 2 0.0 6.952860 6.024216 10.787201
1820 2 0.0 9.080639 5.450982 9.294208
1821 2 0.0 8.915066 4.528059 11.785366
1822 2 0.0 9.310057 7.124358 11.351451
1823 3 0.0 7.471880 6.769670 11.097873
1824 3 0.0 8.656446 6.305671 9.399880
1825 3 0.0 8.469592 5.264123 12.211234
1826 3 0.0 8.352669 7.180748 11.308710
1827 2 0.0 12.635259 17.318530 2.577727
1828 3 0.0 12.462150 16.928742 1.717670
1829 3 0.0 13.521064 17.681131 2.503759
1830 2 0.0 26.111756 22.693915 5.549394
1831 3 0.0 25.664221 23.242836 4.901321
1832 3 0.0 25.699075 22.923354 6.385248
1833 1 0.0 26.482052 33.402592 27.534780
1834 2 0.0 24.969257 34.007444 27.484701
1835 2 0.0 27.539097 34.606886 27.833496
1836 2 0.0 26.837964 32.709989 26.102813
1837 2 0.0 26.581888 32.286051 28.718109
1838 3 0.0 25.116829 33.338904 28.157663
1839 3 0.0 26.875009 34.471981 28.513486
1840 3 0.0 26.083757 32.331271 26.560354
1841 3 0.0 25.719403 32.695690 28.618537
1842 1 0.0 20.968712 19.486444 19.537660
1843 2 0.0 21.075082 19.173281 17.941566
1844 2 0.0 19.445843 19.205161 20.046235
1845 2 0.0 21.353812 21.046334 19.812140
1846 2 0.0 22.000112 18.520999 20.350697
1847 3 0.0 21.652612 18.645537 18.497934
1848 3 0.0 19.894258 18.445116 19.668272
1849 3 0.0 22.047464 20.522941 19.404089
1850 3 0.0 21.998258 18.401806 19.398127
1851 2 0.0 32.510898 20.017180 27.479816
1852 3 0.0 31.842592 19.877133 26.805017
1853 3 0.0 33.322418 19.687507 27.086940
1854 1 0.0 19.068625 1.179102 34.232985
1855 2 0.0 19.413853 2.672176 34.788365
1856 2 0.0 17.808137 1.260615 33.202730
1857 2 0.0 18.684925 0.208839 35.485289
1858 2 0.0 20.367584 0.574777 33.455556
1859 3 0.0 20.128488 2.240173 34.314794
1860 3 0.0 18.576988 1.774263 32.944594
1861 3 0.0 19.566473 0.587299 35.520537
1862 3 0.0 20.484858 1.456461 33.816778
1863 2 0.0 20.831971 34.269157 10.742823
1864 3 0.0 20.992677 33.353084 10.504951
1865 3 0.0 21.095286 34.769104 9.966732
1866 2 0.0 26.941521 18.531255 23.644800
1867 3 0.0 27.460887 18.014072 24.264784
1868 3 0.0 26.991478 18.040748 22.821085
1869 2 0.0 6.692241 16.320428 20.048323
1870 3 0.0 5.777579 16.107747 20.247720
1871 3 0.0 7.050557 16.643859 20.878144
1872 1 0.0 16.175884 28.018071 22.396663
1873 2 0.0 16.954264 29.121171 21.483320
1874 2 0.0 15.380097 28.774339 23.601520
1875 2 0.0 17.257722 26.976277 23.030062
1876 2 0.0 15.111455 27.200496 21.471751
1877 3 0.0 16.304784 28.591906 21.014646
1878 3 0.0 15.115863 29.033196 22.715646
1879 3 0.0 17.234825 27.004024 22.070736
1880 3 0.0 15.616202 27.874228 21.010323
1881 2 0.0 16.887806 35.672163 13.678030
1882 3 0.0 17.620774 35.914259 13.107288
1883 3 0.0 17.214377 35.826081 14.567558
1884 2 0.0 5.353664 11.411911 31.080325
1885 3 0.0 5.506658 10.469075 30.984127
1886 3 0.0 4.840971 11.491375 31.888057
1887 2 0.0 11.793263 27.342910 12.529197
1888 3 0.0 12.640721 27.526161 12.117087
1889 3 0.0 11.918802 27.576415 13.451865
1890 2 0.0 25.577268 32.236477 23.392546
1891 3 0.0 25.763234 32.796717 24.149612
1892 3 0.0 24.837263 31.692384 23.671751
1893 1 0.0 28.423586 34.216063 11.209813
1894 2 0.0 27.232314 35.263564 10.834964
1895 2 0.0 28.843607 33.372354 9.879911
1896 2 0.0 27.901036 33.188785 12.362436
1897 2 0.0 29.717390 35.039550 11.761939
1898 3 0.0 28.036505 35.666741 11.170114
1899 3 0.0 28.955641 34.323179 9.809342
1900 3 0.0 27.891919 34.116016 12.610953
1901 3 0.0 28.965076 35.583036 11.516487
1902 2 0.0 35.175705 17.533825 0.746945
1903 3 0.0 35.191407 17.917707 1.626711
1904 3 0.0 35.021147 16.598049 0.895385
1905 2 0.0 27.267278 9.544287 25.975188
1906 3 0.0 27.331644 10.160400 26.708579
1907 3 0.0 26.326174 9.379931 25.880797
1908 2 0.0 35.908790 27.504940 27.345856
1909 3 0.0 35.291324 27.810509 26.677303
1910 3 0.0 36.283885 26.701534 26.977832
1911 2 0.0 35.913365 3.499200 19.956189
1912 3 0.0 36.447240 3.441671 19.160408
1913 3 0.0 36.392923 2.979956 20.605812
1914 2 0.0 35.207253 4.977035 4.053756
1915 3 0.0 34.320105 4.851518 3.709060
1916 3 0.0 35.101344 4.947460 5.007438
1917 2 0.0 26.021982 5.726044 34.920130
1918 3 0.0 26.200448 5.131752 35.652637
1919 3 0.0 25.903299 6.585552 35.330936
1920 2 0.0 35.019774 33.009820 24.529932
1921 3 0.0 34.250665 32.486797 24.767663
1922 3 0.0 35.516116 32.448813 23.929503
1923 2 0.0 5.715819 4.290327 34.146703
1924 3 0.0 6.331807 3.805014 34.700445
1925 3 0.0 4.849879 3.977570 34.418603
1926 1 0.0 25.699077 9.236380 21.539620
1927 2 0.0 25.748994 10.790714 22.027938
1928 2 0.0 27.175902 8.566899 21.706002
1929 2 0.0 25.246803 9.172697 19.974918
1930 2 0.0 24.624611 8.415212 22.449622
1931 3 0.0 25.137675 10.232257 22.513751
1932 3 0.0 26.785668 8.895934 22.519054
1933 3 0.0 24.608616 9.579597 20.565469
1934 3 0.0 24.717539 9.344629 22.671317
1935 2 0.0 33.235868 31.065651 3.106964
1936 3 0.0 32.417275 31.567091 3.114986
1937 3 0.0 33.037838 30.273499 3.611819
1938 2 0.0 27.451254 0.567729 3.575280
1939 3 0.0 28.298742 0.887884 3.257687
1940 3 0.0 27.187368 36.494186 2.931685
1941 2 0.0 31.378465 0.001215 18.935632
1942 3 0.0 31.391120 0.893661 18.582107
1943 3 0.0 30.793572 0.051497 19.695219
1944 1 0.0 2.961447 6.339631 16.439402
1945 2 0.0 4.223450 6.945847 15.604688
1946 2 0.0 2.576517 4.869258 15.850563
1947 2 0.0 1.681161 7.337242 16.289263
1948 2 0.0 3.364657 6.206177 18.013096
1949 3 0.0 4.375776 6.833806 16.545881
1950 3 0.0 3.469811 4.947923 16.193254
1951 3 0.0 2.459373 7.733125 16.688342
1952 3 0.0 4.054880 6.557421 17.445804
1953 2 0.0 28.986028 33.851546 20.375238
1954 3 0.0 28.434504 33.628347 21.128633
1955 3 0.0 29.060818 33.032216 19.880561
1956 1 0.0 24.289560 23.993881 11.541686
1957 2 0.0 24.908706 24.525994 10.130866
1958 2 0.0 24.681239 22.425378 11.749735
1959 2 0.0 22.667255 24.150045 11.516372
1960 2 0.0 24.901038 24.874108 12.769772
1961 3 0.0 25.217635 24.992313 10.911065
1962 3 0.0 25.428308 23.023377 11.673020
1963 3 0.0 23.155461 24.969721 11.409662
1964 3 0.0 25.214769 25.122389 11.897116
1965 2 0.0 31.444738 2.117394 16.126204
1966 3 0.0 32.344498 1.782694 16.128891
1967 3 0.0 31.102702 1.895246 16.995262
1968 2 0.0 16.820363 27.440401 34.244469
1969 3 0.0 16.360630 28.151365 33.791947
1970 3 0.0 17.751468 27.636589 34.117368
1971 1 0.0 19.766685 5.917941 21.507901
1972 2 0.0 19.283188 4.702801 20.534984
1973 2 0.0 21.143188 5.489881 22.268758
1974 2 0.0 18.607696 6.223458 22.612574
1975 2 0.0 20.032669 7.255623 20.615287
1976 3 0.0 19.462876 5.533271 20.088181
1977 3 0.0 21.196968 5.504239 21.310373
1978 3 0.0 18.335581 6.332105 21.698380
1979 3 0.0 19.742926 6.487156 20.118187
1980 2 0.0 15.593565 4.008204 1.402849
1981 3 0.0 14.935853 4.295782 2.040277
1982 3 0.0 16.118628 4.792685 1.228208
1983 2 0.0 9.543306 27.705918 31.313929
1984 3 0.0 9.011372 27.041780 31.758413
1985 3 0.0 10.238418 27.917089 31.941485
1986 2 0.0 35.963276 31.450355 6.322864
1987 3 0.0 36.583126 31.676532 7.020166
1988 3 0.0 35.592108 32.292087 6.048417
1989 2 0.0 16.201096 4.454718 25.974295
1990 3 0.0 16.626583 5.283643 25.743116
1991 3 0.0 15.555445 4.313215 25.278083
1992 2 0.0 9.453579 25.235246 5.721204
1993 3 0.0 8.583262 25.003980 5.388540
1994 3 0.0 9.947724 25.497146 4.940929
1995 2 0.0 4.382448 15.222781 9.841112
1996 3 0.0 5.168485 15.593236 10.249168
1997 3 0.0 3.666235 15.786306 10.142906
1998 2 0.0 33.278357 24.837724 1.399112
1999 3 0.0 33.267641 24.036884 1.928395
2000 3 0.0 33.840679 25.442368 1.888806
2001 1 0.0 25.084038 29.879394 32.645443
2002 2 0.0 23.777288 30.853639 32.633223
2003 2 0.0 24.645730 28.376742 32.190667
2004 2 0.0 25.711411 29.830701 34.149082
2005 2 0.0 26.201725 30.456495 31.608799
2006 3 0.0 24.488720 31.121732 32.047057
2007 3 0.0 24.482353 29.061904 31.538394
2008 3 0.0 25.685010 30.702745 33.748530
2009 3 0.0 25.394633 30.973335 31.664271
2010 2 0.0 14.448081 2.680734 3.324902
2011 3 0.0 14.024235 3.526088 3.490222
2012 3 0.0 15.305680 2.754252 3.750014
2013 2 0.0 15.600782 13.702824 35.447872
2014 3 0.0 14.799661 14.154744 35.722778
2015 3 0.0 15.481776 12.798482 35.747212
2016 2 0.0 11.723471 31.151631 22.371044
2017 3 0.0 11.122872 30.875760 21.674785
2018 3 0.0 12.287720 30.389050 22.518328
2019 2 0.0 13.191879 21.219225 23.199207
2020 3 0.0 12.660779 21.142234 23.995201
2021 3 0.0 13.992006 20.726253 23.395103
2022 2 0.0 22.169792 12.918294 8.237758
2023 3 0.0 23.018915 13.365478 8.212946
2024 3 0.0 21.583195 13.487497 7.734260
2025 2 0.0 35.140673 34.503493 14.342346
2026 3 0.0 35.640472 34.523043 15.161747
2027 3 0.0 34.914795 35.421634 14.176227
2028 1 0.0 7.160967 18.943976 15.504978
2029 2 0.0 5.990480 17.814655 15.397772
2030 2 0.0 7.401289 19.330532 17.070136
2031 2 0.0 6.708952 20.275018 14.679805
2032 2 0.0 8.543147 18.355700 14.872198
2033 3 0.0 6.843455 17.549568 15.045973
2034 3 0.0 7.552030 18.407790 16.852363
2035 3 0.0 6.770705 19.473674 14.154796
2036 3 0.0 7.797282 17.751734 14.849587
2037 2 0.0 22.324472 33.984700 27.203069
2038 3 0.0 22.702984 34.433043 27.962882
2039 3 0.0 22.985273 34.080412 26.513300
2040 2 0.0 25.508679 8.704696 16.932028
2041 3 0.0 25.007156 7.924469 16.684397
2042 3 0.0 24.849619 9.397543 17.016902
2043 2 0.0 30.621104 6.119447 4.704918
2044 3 0.0 30.042178 6.221974 3.946016
2045 3 0.0 30.620488 5.175996 4.882397
2046 1 0.0 20.495747 4.143569 13.583795
2047 2 0.0 21.481467 5.406327 13.884960
2048 2 0.0 20.610891 3.727187 12.012086
2049 2 0.0 18.957469 4.561936 13.923749
2050 2 0.0 20.933161 2.878828 14.514385
2051 3 0.0 21.669785 4.614287 14.393692
2052 3 0.0 21.431406 3.672545 12.507435
2053 3 0.0 19.565464 4.614587 14.664808
2054 3 0.0 21.464906 3.669864 14.628882
2055 2 0.0 11.497559 11.693884 7.472221
2056 3 0.0 11.069077 11.202515 6.767550
2057 3 0.0 12.027369 11.039912 7.933981
2058 2 0.0 7.186808 11.755753 7.908300
2059 3 0.0 6.287582 11.679291 7.580968
2060 3 0.0 7.737497 11.606279 7.136290
2061 1 0.0 24.083850 19.251282 28.200470
2062 2 0.0 23.039180 20.019311 29.188243
2063 2 0.0 25.301159 20.261033 27.806185
2064 2 0.0 23.306715 18.782402 26.846546
2065 2 0.0 24.688347 17.942382 28.960908
2066 3 0.0 23.444293 19.232046 29.559319
2067 3 0.0 25.208417 20.084603 28.745264
2068 3 0.0 22.957620 18.415919 27.662280
2069 3 0.0 24.060519 18.455983 29.474373
2070 1 0.0 16.315456 17.025335 6.115920
2071 2 0.0 15.523537 18.104860 5.186195
2072 2 0.0 17.718246 16.613349 5.395263
2073 2 0.0 15.393176 15.695418 6.309876
2074 2 0.0 16.626865 17.687714 7.572347
2075 3 0.0 15.747505 18.414898 6.066714
2076 3 0.0 17.626508 17.546583 5.600830
2077 3 0.0 15.002589 16.510668 6.633000
2078 3 0.0 16.159773 18.259027 6.958322
2079 2 0.0 4.709079 34.805218 29.494305
2080 3 0.0 4.401535 34.238095 30.205212
2081 3 0.0 4.475527 34.333169 28.691670
2082 2 0.0 23.652503 9.374184 13.812422
2083 3 0.0 23.704940 9.913607 14.604807
2084 3 0.0 23.344650 8.519562 14.122983
2085 2 0.0 23.482136 12.229800 21.188529
2086 3 0.0 23.205742 11.774923 21.987462
2087 3 0.0 24.341872 12.597413 21.406047
2088 2 0.0 18.458202 9.310842 7.615632
2089 3 0.0 18.895845 9.889571 6.956889
2090 3 0.0 17.662869 8.909210 7.207543
2091 3 0.0 18.181933 9.854448 8.382813
2092 1 0.0 10.981363 14.009979 31.388171
2093 2 0.0 11.042010 12.786788 32.463823
2094 2 0.0 10.176505 15.268147 32.040946
2095 2 0.0 10.210198 13.511481 30.041433
2096 2 0.0 12.496738 14.473498 31.006482
2097 3 0.0 11.896298 13.122831 32.182989
2098 3 0.0 10.965328 14.999772 32.517740
2099 3 0.0 11.003351 13.017316 30.261223
2100 3 0.0 12.439871 13.753085 31.638440
2101 2 0.0 18.357224 4.794935 34.205857
2102 3 0.0 18.465200 3.956900 34.661530
2103 3 0.0 19.179303 5.263942 34.366538
2104 1 0.0 13.660845 8.895863 22.794180
2105 2 0.0 12.064594 9.050654 22.502764
2106 2 0.0 13.910803 7.632073 23.792807
2107 2 0.0 14.220446 10.258592 23.491831
2108 2 0.0 14.447537 8.642135 21.389318
2109 3 0.0 12.606055 8.897688 21.724933
2110 3 0.0 13.484594 7.413620 22.960806
2111 3 0.0 13.834037 10.377733 22.621146
2112 3 0.0 13.496463 8.745041 21.308884
2113 2 0.0 25.740512 21.668515 19.370127
2114 3 0.0 25.026934 21.026343 19.365411
2115 3 0.0 25.692652 22.087842 18.507877
2116 2 0.0 26.146496 11.812113 6.844204
2117 3 0.0 27.048413 11.483417 6.854453
2118 3 0.0 25.609674 11.049141 7.070691
2119 2 0.0 11.307680 27.840018 20.599700
2120 3 0.0 12.013767 27.396506 20.123950
2121 3 0.0 11.150725 28.645497 20.101534
2122 2 0.0 9.118857 29.100530 23.031876
2123 3 0.0 9.056452 29.558224 23.873436
2124 3 0.0 9.296307 29.794699 22.392938
2125 2 0.0 17.521278 24.326077 26.978624
2126 3 0.0 17.065511 24.814456 26.289159
2127 3 0.0 18.231419 24.908923 27.257177
2128 2 0.0 23.773165 33.103922 17.885554
2129 3 0.0 23.944591 32.512964 18.622427
2130 3 0.0 24.342530 32.783192 17.182307
2131 2 0.0 23.820711 16.767094 1.003286
2132 3 0.0 24.585627 16.354563 1.411111
2133 3 0.0 24.179295 17.516447 0.522155
2134 2 0.0 33.403085 34.705503 29.101756
2135 3 0.0 34.101602 34.099159 28.844810
2136 3 0.0 32.927836 34.244507 29.796898
2137 2 0.0 19.893901 36.235400 15.058635
2138 3 0.0 19.671961 35.320257 15.245330
2139 3 0.0 20.398078 36.199117 14.242492
2140 2 0.0 28.730381 28.205434 11.947372
2141 3 0.0 28.165788 28.936025 11.684556
2142 3 0.0 29.180344 28.520164 12.734822
