LAMMPS data file - pH=8.0, 6 Si(OH)4 + 94 Si(OH)3O- + 400 H2O + 94 H3O+

2382 atoms
3 atom types

0.0 37.590105 xlo xhi
0.0 37.590105 ylo yhi
0.0 37.590105 zlo zhi

Masses

1 28.0855  # Si
2 15.9994  # O
3 1.0079  # H

Atoms # charge

1 2 0.0 33.102056 0.154401 35.347857
2 3 0.0 33.782695 0.831155 35.366152
3 3 0.0 32.340656 0.589309 34.957059
4 2 0.0 27.897883 31.616384 24.271318
5 3 0.0 27.087770 31.311879 23.855873
6 3 0.0 28.011943 32.513030 23.947874
7 2 0.0 16.384392 5.554967 0.964444
8 3 0.0 16.851810 4.766155 0.680024
9 3 0.0 16.692898 6.244365 0.371861
10 2 0.0 10.696091 13.386094 36.308241
11 3 0.0 10.467375 12.855081 35.541876
12 3 0.0 11.215491 14.110869 35.952538
13 1 0.0 30.853624 8.198101 37.511658
14 2 0.0 30.848268 7.315733 36.141148
15 2 0.0 29.319235 8.458960 0.405809
16 2 0.0 31.586421 9.627510 37.234713
17 2 0.0 31.660571 7.390201 1.084753
18 3 0.0 31.305448 6.911442 36.882184
19 3 0.0 29.575841 7.535535 0.350682
20 3 0.0 32.134435 8.854281 37.081746
21 2 0.0 11.390341 34.005596 20.198021
22 3 0.0 11.021403 33.716719 19.360146
23 3 0.0 11.354274 34.964132 20.159195
24 1 0.0 18.414816 14.808405 15.874774
25 2 0.0 18.707127 13.210754 16.012497
26 2 0.0 16.807155 15.060531 15.781196
27 2 0.0 19.133475 15.378062 14.527213
28 2 0.0 19.011508 15.584271 17.178188
29 3 0.0 19.027354 13.746171 16.742143
30 3 0.0 17.103831 14.627680 16.585076
31 3 0.0 19.729160 14.986025 15.169916
32 2 0.0 8.869830 24.171540 29.763242
33 3 0.0 8.796077 23.346236 30.248046
34 3 0.0 8.212369 24.745322 30.163391
35 2 0.0 30.090795 20.465236 22.668350
36 3 0.0 29.137372 20.356694 22.640022
37 3 0.0 30.299270 20.518611 23.603919
38 2 0.0 21.959258 20.151897 23.356400
39 3 0.0 21.120001 19.710554 23.506281
40 3 0.0 22.516449 19.862513 24.082619
41 2 0.0 1.916870 33.460507 7.463773
42 3 0.0 1.438064 33.945347 6.787552
43 3 0.0 1.390532 32.671549 7.612479
44 2 0.0 1.836851 11.733567 2.843604
45 3 0.0 0.913129 12.012572 2.672450
46 3 0.0 2.142229 11.171865 2.100882
47 3 0.0 1.862457 11.208642 3.670767
48 1 0.0 17.615309 19.758623 26.766684
49 2 0.0 18.221214 18.679912 27.827892
50 2 0.0 16.409647 20.597616 27.473345
51 2 0.0 17.037139 18.971213 25.461845
52 2 0.0 18.793236 20.785751 26.303655
53 3 0.0 18.851636 19.326349 27.501876
54 3 0.0 17.264605 20.676250 27.902836
55 3 0.0 17.972751 18.840801 25.632792
56 2 0.0 14.982374 33.655203 1.117590
57 3 0.0 14.762664 33.457474 0.204228
58 3 0.0 14.135522 33.820206 1.538560
59 2 0.0 6.605159 18.631061 10.648520
60 3 0.0 5.979418 18.835448 11.347286
61 3 0.0 6.105932 18.095766 10.027366
62 2 0.0 1.385229 6.097237 36.583551
63 3 0.0 1.695547 6.660516 37.323024
64 3 0.0 1.397467 6.622871 35.756533
65 3 0.0 0.465519 5.811829 36.765417
66 2 0.0 24.838487 16.772254 18.009077
67 3 0.0 25.673192 16.637639 17.554382
68 3 0.0 24.389076 17.445472 17.492931
69 2 0.0 10.919877 31.463902 14.348115
70 3 0.0 10.349913 30.691791 14.323919
71 3 0.0 10.649636 31.986425 13.589471
72 2 0.0 6.707015 19.790265 20.668749
73 3 0.0 7.085809 19.326872 19.918162
74 3 0.0 6.042028 20.366666 20.285141
75 2 0.0 3.675658 37.061259 32.739591
76 3 0.0 2.713388 36.883334 32.686866
77 3 0.0 3.812506 0.409457 32.987098
78 3 0.0 4.077102 36.902612 31.859776
79 2 0.0 29.037634 5.760420 31.768028
80 3 0.0 28.541000 5.615719 32.576741
81 3 0.0 28.673016 6.570117 31.403277
82 2 0.0 10.916458 14.523783 32.986858
83 3 0.0 10.409715 15.306760 33.214362
84 3 0.0 11.214968 14.176691 33.830670
85 2 0.0 29.227604 11.112130 33.156197
86 3 0.0 28.457147 11.327044 33.687052
87 3 0.0 28.916296 10.446272 32.538685
88 1 0.0 34.107135 30.241085 24.820694
89 2 0.0 35.245560 30.049155 23.670021
90 2 0.0 32.754155 30.854168 24.149520
91 2 0.0 34.657666 31.263622 25.964474
92 2 0.0 33.771157 28.797394 25.498762
93 3 0.0 34.986828 29.243353 24.123166
94 3 0.0 33.034563 30.006954 23.795684
95 3 0.0 35.182738 30.469037 25.843919
96 2 0.0 17.061022 32.761298 21.845813
97 3 0.0 16.978516 33.483190 22.473240
98 3 0.0 16.644087 32.014564 22.281878
99 2 0.0 15.226803 36.523338 1.966827
100 3 0.0 15.127572 36.293138 2.893520
101 3 0.0 16.065338 36.988663 1.922870
102 1 0.0 8.519516 27.654213 28.232317
103 2 0.0 9.907099 28.453013 27.926651
104 2 0.0 8.792348 26.499075 29.349509
105 2 0.0 7.975854 26.964448 26.859162
106 2 0.0 7.402761 28.700317 28.793946
107 3 0.0 9.191330 28.997194 28.263017
108 3 0.0 8.980748 27.395104 29.638020
109 3 0.0 8.059307 27.920292 26.827581
110 2 0.0 7.298110 24.251269 11.915047
111 3 0.0 6.413295 24.288101 11.544443
112 3 0.0 7.159536 24.133315 12.857641
113 2 0.0 23.817934 31.183544 25.317015
114 3 0.0 24.512333 31.248586 24.657334
115 3 0.0 24.234861 30.746246 26.063032
116 1 0.0 25.474235 34.915118 13.700820
117 2 0.0 24.514149 35.669255 14.780825
118 2 0.0 25.232495 33.305600 13.789775
119 2 0.0 27.034350 35.249472 14.034210
120 2 0.0 25.115946 35.436146 12.198469
121 3 0.0 24.369085 35.918850 13.865260
122 3 0.0 24.455019 33.820665 13.562096
123 3 0.0 26.488471 36.014389 13.837948
124 2 0.0 19.356059 2.241913 19.746141
125 3 0.0 20.078527 1.758802 19.293323
126 3 0.0 19.689556 2.583661 20.601939
127 3 0.0 18.617202 1.621374 19.917668
128 2 0.0 7.163721 14.774148 20.785410
129 3 0.0 7.526226 14.876633 19.902411
130 3 0.0 7.798258 15.210929 21.358284
131 1 0.0 10.975272 20.595503 30.513311
132 2 0.0 12.430143 20.068659 31.025837
133 2 0.0 9.883580 19.392569 30.647702
134 2 0.0 11.083630 21.059236 28.954430
135 2 0.0 10.503732 21.861549 31.425276
136 3 0.0 12.075616 20.817146 31.511304
137 3 0.0 10.299981 19.656455 31.471458
138 3 0.0 11.654277 21.537344 29.560546
139 2 0.0 27.023794 20.739437 27.863642
140 3 0.0 26.183172 20.736767 27.400018
141 3 0.0 26.965389 21.486577 28.463617
142 2 0.0 5.188228 16.700268 35.511128
143 3 0.0 5.496259 16.972475 34.643592
144 3 0.0 5.273326 15.744053 35.507654
145 2 0.0 31.586386 17.835311 5.295318
146 3 0.0 31.904705 17.529510 4.420356
147 3 0.0 32.004497 17.290174 5.994181
148 3 0.0 30.614455 17.717677 5.339057
149 2 0.0 1.972536 37.504384 22.116412
150 3 0.0 2.113444 0.592227 22.781343
151 3 0.0 2.732484 36.923766 22.199856
152 2 0.0 7.485252 22.925556 34.734084
153 3 0.0 7.602719 22.214495 34.099897
154 3 0.0 7.989363 23.657499 34.371133
155 2 0.0 26.304730 7.933320 4.780603
156 3 0.0 26.520222 7.693095 3.876471
157 3 0.0 26.135407 7.095862 5.218318
158 1 0.0 17.238395 27.713957 7.753368
159 2 0.0 18.078024 28.013821 9.117921
160 2 0.0 17.787256 28.673767 6.555697
161 2 0.0 15.657483 28.016319 8.010652
162 2 0.0 17.430817 26.151921 7.329202
163 3 0.0 18.136431 27.111419 8.795651
164 3 0.0 18.442104 28.082548 6.934161
165 3 0.0 16.038585 27.340597 8.576127
166 2 0.0 34.784969 21.431283 2.376470
167 3 0.0 34.489796 21.656648 3.261730
168 3 0.0 35.739317 21.530260 2.408472
169 2 0.0 16.363954 6.445613 14.372928
170 3 0.0 16.298219 6.740365 13.440619
171 3 0.0 15.805023 7.026437 14.930279
172 3 0.0 17.295701 6.524061 14.666346
173 1 0.0 2.970942 6.081381 16.619772
174 2 0.0 3.229340 7.661157 16.312464
175 2 0.0 1.696587 5.559562 15.747634
176 2 0.0 2.661700 5.880205 18.207474
177 2 0.0 4.296141 5.224600 16.211515
178 3 0.0 3.964056 7.081006 16.099823
179 3 0.0 2.429352 5.901819 15.230415
180 3 0.0 3.518514 6.263675 18.006425
181 2 0.0 10.925047 0.216479 9.152230
182 3 0.0 11.464386 37.088340 8.813350
183 3 0.0 11.017766 0.915279 8.500554
184 2 0.0 5.690769 7.263795 3.901446
185 3 0.0 6.016334 6.388732 4.199224
186 3 0.0 5.747231 7.895280 4.648733
187 3 0.0 4.753732 7.178146 3.627537
188 1 0.0 32.495522 34.272119 1.150105
189 2 0.0 32.454562 32.937983 2.085682
190 2 0.0 33.968554 34.411110 0.466178
191 2 0.0 32.195186 35.587017 2.065388
192 2 0.0 31.363784 34.152367 37.573278
193 3 0.0 31.816288 32.950481 1.368709
194 3 0.0 33.493959 33.605848 0.247287
195 3 0.0 31.492655 34.932898 2.052049
196 2 0.0 0.225987 23.600661 24.690402
197 3 0.0 36.962373 23.985625 24.901511
198 3 0.0 0.854776 24.113581 25.203371
199 2 0.0 28.351646 14.072687 29.704907
200 3 0.0 28.608077 14.948579 29.407156
201 3 0.0 27.392710 14.101471 29.739741
202 2 0.0 17.889297 8.228751 31.323978
203 3 0.0 17.160998 8.852037 31.375889
204 3 0.0 17.682827 7.680096 30.563749
205 2 0.0 9.118215 30.829587 9.081130
206 3 0.0 9.539054 29.970763 9.164295
207 3 0.0 9.199157 31.048112 8.149844
208 1 0.0 34.969921 13.491423 18.344704
209 2 0.0 33.389309 13.277912 18.008584
210 2 0.0 35.714589 14.155642 17.055835
211 2 0.0 35.652720 12.050710 18.683871
212 2 0.0 35.123069 14.481427 19.630526
213 3 0.0 33.571144 13.851259 18.756789
214 3 0.0 35.002136 14.680632 17.427851
215 3 0.0 34.932314 12.305148 19.265144
216 2 0.0 16.104909 13.215763 11.183863
217 3 0.0 16.976179 12.847779 11.348411
218 3 0.0 15.525969 12.451481 11.135895
219 2 0.0 2.806579 6.631180 22.110020
220 3 0.0 2.315602 6.190021 22.807100
221 3 0.0 3.236141 7.369409 22.548305
222 2 0.0 6.313817 19.271937 1.059450
223 3 0.0 7.096884 19.691256 0.695338
224 3 0.0 5.753003 20.002770 1.329581
225 2 0.0 21.794332 32.878057 26.624070
226 3 0.0 21.451070 32.072141 26.231296
227 3 0.0 22.273878 32.581789 27.401154
228 2 0.0 11.575932 25.531065 27.853958
229 3 0.0 12.069156 25.451259 27.010891
230 3 0.0 10.978809 24.759623 27.947345
231 3 0.0 11.037149 26.349347 27.830991
232 2 0.0 24.792788 4.157483 7.637714
233 3 0.0 24.530944 4.670789 6.845026
234 3 0.0 24.089147 4.237461 8.315130
235 3 0.0 25.624581 4.530328 7.997585
236 2 0.0 34.324447 4.031339 10.924281
237 3 0.0 34.767770 3.377289 11.469518
238 3 0.0 33.701044 4.456690 11.517615
239 2 0.0 5.396853 2.063169 24.304127
240 3 0.0 5.819645 1.236554 24.060088
241 3 0.0 4.456495 1.878291 24.248023
242 2 0.0 35.089985 22.507297 7.881349
243 3 0.0 35.578396 23.105857 7.311454
244 3 0.0 34.645953 21.908076 7.276890
245 2 0.0 29.135292 4.058627 12.507758
246 3 0.0 28.177101 4.067211 12.449488
247 3 0.0 29.372068 4.965993 12.713240
248 2 0.0 24.000517 13.157908 11.497463
249 3 0.0 24.695616 12.549884 11.235272
250 3 0.0 23.191773 12.646363 11.420937
251 2 0.0 11.009366 25.480443 3.363393
252 3 0.0 10.526235 24.736973 3.731410
253 3 0.0 11.422559 25.130358 2.570731
254 2 0.0 27.675594 7.802490 11.052760
255 3 0.0 27.579032 6.906709 11.384201
256 3 0.0 26.781457 8.151668 11.038839
257 2 0.0 8.890386 27.043623 6.518570
258 3 0.0 9.726006 27.510994 6.448537
259 3 0.0 8.842375 26.772903 7.438356
260 2 0.0 27.243060 31.081464 26.695832
261 3 0.0 28.195439 31.183213 26.760794
262 3 0.0 27.119327 30.378789 26.053541
263 2 0.0 1.448403 28.919524 18.867880
264 3 0.0 0.616078 28.448265 18.950039
265 3 0.0 1.367971 29.408551 18.045698
266 2 0.0 37.071722 11.062830 9.708951
267 3 0.0 36.198985 10.765716 9.976633
268 3 0.0 37.389461 10.375525 9.118820
269 2 0.0 1.122777 5.703263 5.684210
270 3 0.0 0.482309 4.988963 5.718516
271 3 0.0 0.591398 6.499985 5.617344
272 2 0.0 1.801357 20.144681 35.356806
273 3 0.0 1.188003 19.857440 34.648505
274 3 0.0 1.302020 20.226484 36.196074
275 3 0.0 2.172070 21.020574 35.120622
276 2 0.0 5.528921 34.744711 17.309618
277 3 0.0 5.332399 34.491033 16.404838
278 3 0.0 6.424364 34.432110 17.458149
279 2 0.0 34.286602 33.304262 29.241970
280 3 0.0 34.890103 32.686365 28.822935
281 3 0.0 34.820263 33.751024 29.903188
282 2 0.0 12.075556 6.242056 32.163376
283 3 0.0 11.200364 6.626159 32.253395
284 3 0.0 12.213027 6.175854 31.215579
285 2 0.0 13.881582 13.084695 5.040684
286 3 0.0 14.441164 13.189220 5.813693
287 3 0.0 14.477907 12.785032 4.350612
288 2 0.0 3.264561 12.098604 32.440859
289 3 0.0 3.331365 13.065929 32.298659
290 3 0.0 3.141040 11.657563 31.574473
291 3 0.0 2.485678 11.913262 33.006004
292 2 0.0 21.958809 22.572668 13.990408
293 3 0.0 21.371314 22.989333 14.625106
294 3 0.0 21.877759 21.632791 14.168345
295 2 0.0 17.309055 15.499118 28.485276
296 3 0.0 17.624352 15.718879 29.364988
297 3 0.0 17.151527 16.348654 28.066857
298 1 0.0 2.602975 3.248186 3.271924
299 2 0.0 3.313043 4.320815 2.270839
300 2 0.0 3.190595 1.756949 2.975586
301 2 0.0 0.992091 3.256743 3.023168
302 2 0.0 2.916170 3.658237 4.818102
303 3 0.0 3.447624 4.488410 3.206467
304 3 0.0 3.845450 2.404703 3.246105
305 3 0.0 1.364365 4.097270 3.299802
306 2 0.0 35.544272 16.330896 16.640483
307 3 0.0 36.212913 16.956192 16.351478
308 3 0.0 34.740310 16.851410 16.706139
309 1 0.0 25.368500 5.907316 37.031604
310 2 0.0 25.021117 7.168545 0.413881
311 2 0.0 26.175255 4.773202 0.289928
312 2 0.0 26.293261 6.417143 35.789914
313 2 0.0 23.984368 5.270373 36.452482
314 3 0.0 24.258390 6.732028 0.027485
315 3 0.0 25.298642 4.980874 0.621626
316 3 0.0 25.431816 6.836116 35.852963
317 2 0.0 36.925483 18.888021 6.803874
318 3 0.0 37.137062 19.295995 7.646721
319 3 0.0 36.388301 19.540596 6.348704
320 2 0.0 34.932112 26.311063 13.302059
321 3 0.0 34.705099 27.108207 12.817677
322 3 0.0 34.132592 25.780136 13.280046
323 2 0.0 29.252207 1.032077 21.961797
324 3 0.0 29.890784 1.743481 22.049682
325 3 0.0 28.904206 0.910157 22.848155
326 2 0.0 3.669279 15.310544 6.539592
327 3 0.0 2.873485 14.792826 6.397186
328 3 0.0 4.279109 15.005329 5.863906
329 2 0.0 29.976143 28.041108 21.128154
330 3 0.0 29.589740 28.115182 20.252480
331 3 0.0 29.583703 28.761923 21.626166
332 2 0.0 30.522527 36.816866 20.180549
333 3 0.0 29.985185 36.051126 19.964895
334 3 0.0 30.028839 37.271787 20.866785
335 2 0.0 28.729220 35.821583 17.164477
336 3 0.0 29.536907 35.919997 17.673944
337 3 0.0 28.406008 36.718276 17.050131
338 1 0.0 25.487415 14.433153 36.851944
339 2 0.0 25.104151 13.243000 0.307566
340 2 0.0 27.034079 14.888952 37.090647
341 2 0.0 24.501535 15.708262 37.094922
342 2 0.0 25.309896 13.892399 35.324537
343 3 0.0 25.026715 13.008479 36.969983
344 3 0.0 26.915386 13.967574 36.848622
345 3 0.0 24.057327 14.892193 36.853446
346 1 0.0 29.715392 10.976393 5.831139
347 2 0.0 30.468111 12.393388 5.544016
348 2 0.0 28.739896 10.615287 4.576185
349 2 0.0 28.826895 11.099144 7.192170
350 2 0.0 30.826665 9.797753 6.012185
351 3 0.0 31.051961 11.640812 5.663797
352 3 0.0 29.669822 10.703819 4.354826
353 3 0.0 29.768003 11.249868 7.307052
354 2 0.0 26.218058 15.277554 12.109870
355 3 0.0 25.930327 16.164957 12.336424
356 3 0.0 26.479429 15.337257 11.188067
357 2 0.0 11.885388 7.371345 20.692287
358 3 0.0 11.265463 6.662439 20.505886
359 3 0.0 11.600306 8.094661 20.129133
360 2 0.0 36.934688 20.086427 14.006491
361 3 0.0 0.207167 20.101216 14.427597
362 3 0.0 36.362229 19.655701 14.645527
363 2 0.0 18.538754 15.181917 8.998469
364 3 0.0 17.666235 14.807541 8.856511
365 3 0.0 19.142638 14.528184 8.638528
366 1 0.0 29.634739 13.849310 19.463478
367 2 0.0 29.318095 15.036076 20.535029
368 2 0.0 30.046907 14.507149 18.030207
369 2 0.0 28.308731 12.920538 19.273781
370 2 0.0 30.865223 12.933477 20.014894
371 3 0.0 30.033798 14.446146 20.782725
372 3 0.0 30.617259 14.745093 18.764836
373 3 0.0 28.655671 12.954550 20.168250
374 1 0.0 9.757585 36.425174 22.329567
375 2 0.0 10.711046 35.932668 23.556454
376 2 0.0 9.516106 35.186370 21.298086
377 2 0.0 10.479016 0.065841 21.541126
378 2 0.0 8.324173 36.925712 22.922602
379 3 0.0 9.842127 36.245692 23.818363
380 3 0.0 9.213341 35.031691 22.195865
381 3 0.0 10.300016 0.228583 22.470144
382 2 0.0 25.117989 23.837503 10.681679
383 3 0.0 25.199938 22.912823 10.926321
384 3 0.0 25.496318 23.887864 9.800810
385 2 0.0 18.243865 4.265043 28.772991
386 3 0.0 18.334296 4.620108 27.885663
387 3 0.0 17.296238 4.228638 28.922249
388 2 0.0 11.446352 22.343851 18.430865
389 3 0.0 12.318623 22.051924 18.705679
390 3 0.0 11.493237 22.373226 17.472461
391 2 0.0 13.012850 19.579502 11.171138
392 3 0.0 12.081946 19.686489 11.379877
393 3 0.0 13.020100 19.217780 10.281923
394 2 0.0 33.726546 13.187695 12.070596
395 3 0.0 33.211003 13.971848 11.868308
396 3 0.0 33.082168 12.551754 12.389900
397 2 0.0 36.448921 35.315144 26.988655
398 3 0.0 37.255997 35.374066 27.541426
399 3 0.0 35.666683 35.509055 27.546243
400 3 0.0 36.370464 34.403983 26.636477
401 2 0.0 22.526525 12.614273 31.442593
402 3 0.0 22.629432 13.065754 32.283530
403 3 0.0 21.628320 12.275830 31.459444
404 2 0.0 27.814122 34.013238 25.773843
405 3 0.0 26.917441 33.784208 26.096192
406 3 0.0 27.734336 34.673753 25.054292
407 3 0.0 28.240213 33.205505 25.418296
408 2 0.0 10.394689 1.970034 4.635480
409 3 0.0 9.935851 2.835772 4.616361
410 3 0.0 10.712358 1.798499 5.546558
411 3 0.0 11.165449 2.005171 4.031250
412 2 0.0 18.070497 30.434151 30.132924
413 3 0.0 18.443831 30.954985 29.418114
414 3 0.0 17.755559 31.084159 30.765303
415 1 0.0 25.171503 20.350737 6.991245
416 2 0.0 24.308126 18.979867 6.811810
417 2 0.0 24.557294 21.510192 6.024129
418 2 0.0 26.725229 20.071369 6.585303
419 2 0.0 25.095362 20.841521 8.543738
420 3 0.0 24.316982 19.340234 7.701562
421 3 0.0 23.946435 21.160954 6.677187
422 3 0.0 26.393021 19.537195 7.310490
423 1 0.0 3.596016 11.631561 14.541811
424 2 0.0 4.820500 10.942145 13.715831
425 2 0.0 4.011142 13.150989 14.961227
426 2 0.0 3.289379 10.761518 15.885649
427 2 0.0 2.263043 11.671593 13.604538
428 3 0.0 3.992134 11.006302 13.234901
429 3 0.0 4.003077 12.978633 14.016860
430 3 0.0 3.188545 10.282036 15.060100
431 2 0.0 30.392095 16.651955 28.030254
432 3 0.0 30.508346 17.386488 28.637334
433 3 0.0 31.279338 16.313600 27.889134
434 2 0.0 14.935055 8.863736 24.555175
435 3 0.0 15.680923 8.669818 25.127606
436 3 0.0 14.255026 8.243197 24.827375
437 2 0.0 31.501185 31.297331 26.598829
438 3 0.0 31.436422 31.247094 27.555323
439 3 0.0 32.135921 31.999152 26.437095
440 2 0.0 5.263727 30.318227 6.504161
441 3 0.0 5.044037 31.009117 5.874870
442 3 0.0 4.426659 30.093738 6.917103
443 2 0.0 14.615365 23.838852 18.418933
444 3 0.0 14.488218 24.140676 19.321339
445 3 0.0 13.813611 24.102801 17.961635
446 2 0.0 6.981963 1.748045 15.009712
447 3 0.0 6.552399 1.002423 15.435299
448 3 0.0 6.261703 2.334847 14.767866
449 2 0.0 0.195567 17.388308 13.638515
450 3 0.0 0.344457 17.041304 14.521136
451 3 0.0 1.028301 17.801365 13.398645
452 2 0.0 28.968582 15.105530 11.804218
453 3 0.0 29.718036 14.947811 12.415645
454 3 0.0 28.812788 14.294727 11.276272
455 3 0.0 29.201523 15.839710 11.198315
456 2 0.0 7.912456 11.542479 21.595199
457 3 0.0 7.271671 10.868028 21.358322
458 3 0.0 8.542188 11.088441 22.159900
459 2 0.0 20.374762 21.220815 5.153558
460 3 0.0 21.294751 21.464119 5.280139
461 3 0.0 19.880258 21.992792 5.438368
462 2 0.0 36.577159 25.131502 22.845518
463 3 0.0 37.016386 24.357047 23.204541
464 3 0.0 37.288914 25.750010 22.665370
465 1 0.0 21.574989 3.295318 3.738192
466 2 0.0 22.061844 1.983126 4.573671
467 2 0.0 20.980375 2.829880 2.293649
468 2 0.0 22.842567 4.293844 3.507781
469 2 0.0 20.415168 4.074420 4.577665
470 3 0.0 21.375904 2.503194 4.998660
471 3 0.0 20.522945 2.468245 3.056262
472 3 0.0 22.624490 4.120377 4.426449
473 1 0.0 15.895799 19.918167 30.964078
474 2 0.0 14.498613 20.222257 30.181581
475 2 0.0 17.148126 20.131917 29.942860
476 2 0.0 15.892100 18.380519 31.504933
477 2 0.0 16.044355 20.937977 32.226940
478 3 0.0 14.666810 20.781326 30.943652
479 3 0.0 16.602173 20.908923 30.083560
480 3 0.0 15.184707 18.932413 31.846411
481 2 0.0 0.808762 1.855559 12.154655
482 3 0.0 0.794289 2.123455 13.076405
483 3 0.0 37.521477 1.500964 11.993260
484 2 0.0 10.317137 14.044307 4.958865
485 3 0.0 10.795412 14.299921 5.751023
486 3 0.0 10.757941 14.516465 4.248683
487 2 0.0 0.271784 31.821543 2.761606
488 3 0.0 0.045446 31.002085 3.207544
489 3 0.0 0.304238 31.588115 1.830983
490 2 0.0 6.407978 37.095427 1.830216
491 3 0.0 5.948079 36.987818 2.665987
492 3 0.0 5.801557 36.743087 1.174692
493 1 0.0 4.073383 37.158702 14.325666
494 2 0.0 4.237705 35.691491 13.634878
495 2 0.0 4.893751 0.674674 13.453604
496 2 0.0 4.666792 37.114315 15.843163
497 2 0.0 2.495285 37.564225 14.371020
498 3 0.0 3.334366 36.009384 13.702131
499 3 0.0 4.198778 0.215760 12.976099
500 3 0.0 3.942648 36.507529 15.672795
501 2 0.0 8.633724 14.159191 24.579312
502 3 0.0 8.431799 13.501345 23.909936
503 3 0.0 8.771008 13.651254 25.382277
504 2 0.0 13.846149 16.928775 28.925811
505 3 0.0 13.563934 16.311909 29.605098
506 3 0.0 13.253175 17.677899 29.019587
507 2 0.0 13.965712 8.032173 9.758817
508 3 0.0 13.010378 8.051544 9.666284
509 3 0.0 14.237656 7.243834 9.283246
510 1 0.0 12.647283 26.507711 11.725910
511 2 0.0 14.048091 26.319679 12.537869
512 2 0.0 12.575335 28.014424 11.108221
513 2 0.0 11.394568 26.277051 12.742966
514 2 0.0 12.571135 25.419691 10.514583
515 3 0.0 13.920672 25.715007 11.803202
516 3 0.0 13.316052 27.485642 10.802724
517 3 0.0 11.983518 25.524960 12.647587
518 2 0.0 6.588545 12.486240 37.299409
519 3 0.0 6.553250 11.812380 0.392142
520 3 0.0 5.678958 12.777039 37.200984
521 2 0.0 11.068148 34.121721 26.047798
522 3 0.0 10.432066 34.687605 26.491391
523 3 0.0 11.484962 34.691728 25.397445
524 2 0.0 32.240115 14.415506 27.113908
525 3 0.0 31.638681 13.950299 27.699962
526 3 0.0 31.682472 14.734425 26.400519
527 2 0.0 24.796767 19.943508 32.539315
528 3 0.0 25.218989 19.731708 31.703570
529 3 0.0 24.296201 19.155370 32.762637
530 1 0.0 8.306283 1.231292 11.807454
531 2 0.0 8.049172 2.823835 12.041123
532 2 0.0 7.263156 0.372933 12.719597
533 2 0.0 9.834754 0.859299 12.234418
534 2 0.0 8.078051 0.869101 10.234676
535 3 0.0 7.935431 2.522931 11.136623
536 3 0.0 6.854300 0.959176 12.078694
537 3 0.0 9.756433 1.508056 11.531154
538 3 0.0 7.946222 1.792527 10.461628
539 2 0.0 16.741834 2.449488 22.694314
540 3 0.0 17.396687 3.146714 22.775815
541 3 0.0 15.938721 2.903437 22.428721
542 2 0.0 21.276484 18.491184 14.608010
543 3 0.0 21.168927 17.560345 14.399277
544 3 0.0 20.476766 18.724878 15.084915
545 2 0.0 28.773807 3.451481 29.429141
546 3 0.0 28.425357 3.836342 30.260324
547 3 0.0 28.469802 2.522640 29.356789
548 3 0.0 29.753273 3.464148 29.458903
549 2 0.0 23.112149 27.519419 16.149849
550 3 0.0 22.505660 27.800580 15.460851
551 3 0.0 23.738710 26.947611 15.700340
552 1 0.0 23.190070 23.267748 29.469048
553 2 0.0 21.938229 23.052487 28.447549
554 2 0.0 24.591569 23.089196 28.656140
555 2 0.0 23.111306 22.163354 30.665295
556 2 0.0 23.119174 24.765956 30.107206
557 3 0.0 21.973434 23.913661 28.870326
558 3 0.0 24.022833 23.792593 28.334625
559 3 0.0 22.352309 22.747750 30.602023
560 2 0.0 15.845893 33.635507 8.825413
561 3 0.0 16.637495 33.284098 9.239511
562 3 0.0 15.440147 34.179325 9.504554
563 2 0.0 9.905122 4.899543 14.420492
564 3 0.0 10.229650 5.585296 15.008730
565 3 0.0 10.383203 4.109985 14.684380
566 1 0.0 35.276915 6.831886 27.304700
567 2 0.0 33.980811 6.309174 26.465781
568 2 0.0 35.780000 8.257371 26.694945
569 2 0.0 36.478134 5.736372 27.187127
570 2 0.0 34.868717 7.024627 28.870945
571 3 0.0 33.827714 6.449755 27.403010
572 3 0.0 34.879762 8.253778 27.028352
573 3 0.0 35.667630 5.408748 27.583795
574 2 0.0 28.626230 32.070639 19.487194
575 3 0.0 29.553124 31.941724 19.701315
576 3 0.0 28.222364 32.336636 20.316493
577 2 0.0 32.922755 0.019962 8.496393
578 3 0.0 33.165558 37.009140 9.204583
579 3 0.0 33.676578 0.608203 8.410820
580 1 0.0 5.114602 22.908297 16.355074
581 2 0.0 4.715857 21.329618 16.430392
582 2 0.0 4.761469 23.487782 14.873050
583 2 0.0 6.710412 23.079790 16.639467
584 2 0.0 4.270670 23.736001 17.477387
585 3 0.0 4.262059 21.893240 17.061262
586 3 0.0 4.012531 23.137095 15.360606
587 3 0.0 6.211978 22.676663 17.354066
588 2 0.0 22.483931 17.266050 18.563888
589 3 0.0 22.019313 16.801226 19.263651
590 3 0.0 23.353501 17.444342 18.929483
591 2 0.0 24.757509 22.140359 21.822714
592 3 0.0 25.662232 22.458736 21.864100
593 3 0.0 24.598181 21.754968 22.687403
594 2 0.0 26.896007 17.890227 12.940768
595 3 0.0 27.141310 16.964879 12.868954
596 3 0.0 26.025358 17.877753 13.345014
597 2 0.0 34.638208 3.035353 18.867405
598 3 0.0 33.841231 3.200276 18.358261
599 3 0.0 34.755117 3.828676 19.395203
600 2 0.0 27.137648 35.357279 10.685412
601 3 0.0 27.348046 35.343283 11.621968
602 3 0.0 27.805022 35.927877 10.297300
603 1 0.0 8.342674 37.236669 7.483783
604 2 0.0 8.700280 36.353782 8.806480
605 2 0.0 7.270233 0.808462 7.879717
606 2 0.0 7.697838 36.268274 6.342162
607 2 0.0 9.702346 0.335948 6.906771
608 3 0.0 9.448543 36.797217 8.400195
609 3 0.0 8.104635 0.848251 8.352782
610 3 0.0 8.587201 36.034251 6.617600
611 2 0.0 18.812807 0.450114 3.480830
612 3 0.0 19.068681 0.576538 4.418351
613 3 0.0 19.619229 0.477159 2.924636
614 3 0.0 18.216800 1.180328 3.212573
615 2 0.0 34.340927 0.973227 27.986850
616 3 0.0 35.214976 0.930530 28.381585
617 3 0.0 33.839065 0.291076 28.438961
618 2 0.0 25.251523 28.716702 6.999558
619 3 0.0 25.415905 28.879533 6.047264
620 3 0.0 24.888598 29.532403 7.403682
621 3 0.0 26.100963 28.496401 7.435813
622 2 0.0 16.247279 27.086423 32.204807
623 3 0.0 15.557388 26.593865 32.655405
624 3 0.0 16.585252 27.690592 32.869904
625 2 0.0 2.437900 33.913634 24.559195
626 3 0.0 1.889020 33.794367 25.362255
627 3 0.0 2.987422 34.717991 24.666128
628 3 0.0 1.848110 34.031928 23.785532
629 2 0.0 15.196018 15.157802 35.590160
630 3 0.0 15.623717 15.283751 36.440342
631 3 0.0 15.751368 15.633918 34.968469
632 2 0.0 30.122493 20.414478 32.973470
633 3 0.0 29.538839 19.693778 32.725401
634 3 0.0 29.560416 21.192694 32.966454
635 2 0.0 14.872284 2.433582 10.060426
636 3 0.0 14.100574 2.186449 10.575197
637 3 0.0 15.073160 1.653500 9.538199
638 2 0.0 35.480477 17.250186 26.528680
639 3 0.0 35.301548 16.323989 26.350513
640 3 0.0 35.028750 17.427593 27.356973
641 2 0.0 12.271622 15.147764 24.007561
642 3 0.0 11.738651 15.829346 24.423477
643 3 0.0 13.165889 15.496361 24.026697
644 2 0.0 8.629694 18.300013 12.530288
645 3 0.0 8.914186 17.368412 12.422658
646 3 0.0 9.263844 18.760232 13.118890
647 3 0.0 7.741934 18.315555 12.945064
648 2 0.0 26.165779 36.159869 28.577779
649 3 0.0 25.473067 35.667830 29.024598
650 3 0.0 26.554958 36.705634 29.265005
651 2 0.0 29.348290 2.249960 36.430909
652 3 0.0 28.634298 1.616515 36.328130
653 3 0.0 28.914400 3.057594 36.715632
654 2 0.0 1.022099 22.263313 19.057790
655 3 0.0 1.469827 22.252400 19.906919
656 3 0.0 1.075506 21.356974 18.745864
657 2 0.0 20.771958 4.552388 29.434490
658 3 0.0 20.595112 3.860132 30.075666
659 3 0.0 20.152179 4.383689 28.721036
660 2 0.0 16.592042 7.354715 24.123569
661 3 0.0 16.712556 6.439885 24.388453
662 3 0.0 17.274853 7.834603 24.597992
663 2 0.0 1.533135 8.360726 2.112116
664 3 0.0 1.778950 8.887935 1.348423
665 3 0.0 2.133253 8.646196 2.804911
666 2 0.0 31.451048 22.764509 31.432120
667 3 0.0 32.079271 22.060939 31.698061
668 3 0.0 31.706542 23.101474 30.548051
669 3 0.0 31.502905 23.498483 32.079416
670 2 0.0 27.341422 23.498150 6.538261
671 3 0.0 26.655101 22.861009 6.749487
672 3 0.0 28.109024 22.962917 6.323989
673 2 0.0 24.176421 17.252582 8.684866
674 3 0.0 23.654997 16.967197 7.931027
675 3 0.0 23.532128 17.602591 9.304527
676 2 0.0 17.525216 8.140526 5.167030
677 3 0.0 16.834956 8.807573 5.153253
678 3 0.0 17.076566 7.325013 4.931974
679 2 0.0 10.870488 11.743543 14.208278
680 3 0.0 11.714871 11.288022 14.241728
681 3 0.0 10.269649 11.107974 13.812496
682 2 0.0 31.470603 10.897412 28.730242
683 3 0.0 32.082871 10.187833 28.938147
684 3 0.0 30.877513 10.519777 28.076608
685 2 0.0 3.517088 23.860514 11.655357
686 3 0.0 4.300496 23.431920 11.302966
687 3 0.0 2.785034 23.427895 11.209781
688 2 0.0 25.797580 26.437250 26.381977
689 3 0.0 25.374151 25.646912 25.986410
690 3 0.0 25.288023 26.708190 27.174027
691 3 0.0 25.781547 27.167316 25.728412
692 2 0.0 31.321053 17.191116 13.809976
693 3 0.0 30.389727 17.127892 13.511588
694 3 0.0 31.836944 17.685823 13.139512
695 3 0.0 31.690689 16.287243 13.892339
696 2 0.0 19.379820 7.940166 24.260054
697 3 0.0 19.434802 7.239425 24.913920
698 3 0.0 19.975419 7.663318 23.559899
699 2 0.0 20.490529 31.115531 31.777249
700 3 0.0 21.309750 30.712113 32.073445
701 3 0.0 20.053425 31.393974 32.585339
702 2 0.0 27.557011 13.143094 16.961031
703 3 0.0 27.498276 13.926276 16.408966
704 3 0.0 28.136126 12.550092 16.476702
705 2 0.0 0.129224 22.340732 9.913797
706 3 0.0 0.423514 23.237228 9.736909
707 3 0.0 36.893822 22.258655 9.430681
708 1 0.0 25.492449 10.238617 26.405798
709 2 0.0 23.942090 10.675184 26.155405
710 2 0.0 25.539573 8.946887 27.398830
711 2 0.0 26.302555 11.477902 27.087561
712 2 0.0 26.185577 9.854496 24.981395
713 3 0.0 24.427817 10.431436 25.364042
714 3 0.0 25.060304 8.810549 26.578273
715 3 0.0 25.921355 11.666883 26.226996
716 1 0.0 16.549151 12.192466 36.330283
717 2 0.0 17.202217 13.419080 37.182235
718 2 0.0 17.463837 10.855865 36.513989
719 2 0.0 16.490002 12.597745 34.752579
720 2 0.0 15.040546 11.897172 36.872330
721 3 0.0 16.308808 13.178074 37.437842
722 3 0.0 17.097037 11.211340 37.326821
723 3 0.0 15.998032 13.177110 35.339012
724 1 0.0 20.769626 21.381637 9.485029
725 2 0.0 21.892147 21.295716 8.306274
726 2 0.0 20.553179 22.938448 9.916759
727 2 0.0 21.271876 20.524265 10.777143
728 2 0.0 19.361302 20.768120 8.939941
729 3 0.0 21.027258 20.953541 8.068613
730 3 0.0 20.363549 22.742559 8.996287
731 3 0.0 21.174623 20.018074 9.967259
732 2 0.0 10.118542 16.376955 1.099513
733 3 0.0 10.537028 15.685957 0.580869
734 3 0.0 9.570004 15.905410 1.730664
735 1 0.0 15.636095 31.347942 16.903118
736 2 0.0 14.167973 30.681019 16.664931
737 2 0.0 16.750417 30.532089 16.037340
738 2 0.0 16.016528 31.272989 18.486327
739 2 0.0 15.609462 32.905669 16.423873
740 3 0.0 14.241254 31.603074 16.407939
741 3 0.0 16.047380 30.931559 15.519881
742 3 0.0 15.219162 31.767689 18.283644
743 2 0.0 13.670290 27.989864 27.772860
744 3 0.0 13.064292 27.601007 27.108061
745 3 0.0 13.839498 28.926531 27.539574
746 3 0.0 14.518591 27.499480 27.755263
747 2 0.0 22.722258 29.819624 20.395853
748 3 0.0 23.642837 30.091620 20.593214
749 3 0.0 22.418310 29.198538 21.090309
750 3 0.0 22.704729 29.361541 19.529681
751 1 0.0 33.456468 14.870793 22.438695
752 2 0.0 34.295026 13.477054 22.544570
753 2 0.0 32.323520 14.736148 21.274566
754 2 0.0 34.473275 16.089910 22.068886
755 2 0.0 32.734052 15.180062 23.866760
756 3 0.0 33.835557 13.736031 23.346704
757 3 0.0 32.243653 14.104862 21.993384
758 3 0.0 34.669722 15.632628 22.889801
759 2 0.0 5.914272 11.355974 6.574773
760 3 0.0 6.531065 11.884330 7.086638
761 3 0.0 6.386739 10.539438 6.396886
762 2 0.0 35.400320 7.525532 31.795200
763 3 0.0 35.790462 8.391025 31.937715
764 3 0.0 34.714851 7.457450 32.463853
765 2 0.0 33.589120 0.859390 24.338433
766 3 0.0 33.511111 0.652667 25.272660
767 3 0.0 32.736373 0.621404 23.967238
768 2 0.0 0.659189 18.827292 18.707812
769 3 0.0 1.156657 18.028223 18.519095
770 3 0.0 37.330701 18.549025 18.688976
771 2 0.0 23.709109 14.443429 20.320850
772 3 0.0 23.887801 13.771284 19.659117
773 3 0.0 22.756091 14.422018 20.434423
774 1 0.0 28.951504 25.216168 18.638363
775 2 0.0 27.425049 25.016768 19.174158
776 2 0.0 29.197663 26.784932 18.270553
777 2 0.0 29.184037 24.303262 17.308164
778 2 0.0 29.999265 24.759710 19.800577
779 3 0.0 28.110115 24.770343 19.799905
780 3 0.0 28.958288 26.615252 19.184614
781 3 0.0 28.942911 23.814606 18.098527
782 2 0.0 5.718300 30.310191 22.703062
783 3 0.0 5.347188 31.214420 22.632024
784 3 0.0 5.067006 29.733663 23.154540
785 3 0.0 6.538211 30.344090 23.238781
786 1 0.0 37.516157 26.675706 1.571203
787 2 0.0 37.450396 26.836880 3.191882
788 2 0.0 0.115406 28.142767 0.886531
789 2 0.0 36.132483 26.000714 1.035728
790 2 0.0 1.186132 25.722462 1.170673
791 3 0.0 0.577650 26.287496 2.867578
792 3 0.0 0.815914 27.882898 1.489321
793 3 0.0 36.630806 25.465521 1.657695
794 3 0.0 1.073063 25.871084 2.112335
795 2 0.0 18.725808 3.681184 16.208585
796 3 0.0 19.315430 3.231752 16.849489
797 3 0.0 17.969338 4.073003 16.692973
798 3 0.0 18.386419 3.019396 15.570423
799 2 0.0 8.806678 7.051150 15.536792
800 3 0.0 9.572042 6.972663 14.962633
801 3 0.0 8.532270 6.145308 15.697264
802 2 0.0 14.242497 35.630584 7.333067
803 3 0.0 14.783023 35.183970 6.648401
804 3 0.0 13.602755 36.228588 6.893156
805 3 0.0 14.832399 36.162627 7.906955
806 2 0.0 20.031996 28.358595 2.573424
807 3 0.0 19.696098 27.553364 2.973895
808 3 0.0 19.251316 28.896996 2.424217
809 1 0.0 32.611655 21.945584 26.827904
810 2 0.0 32.211961 22.830630 28.137041
811 2 0.0 31.933075 22.603099 25.499709
812 2 0.0 32.068903 20.420263 27.016892
813 2 0.0 34.232682 21.928343 26.657976
814 3 0.0 33.153770 22.767602 27.962044
815 3 0.0 32.537319 23.178924 25.973961
816 3 0.0 32.690605 20.715522 27.686152
817 2 0.0 15.645412 27.700030 20.598152
818 3 0.0 15.539896 28.607069 20.301931
819 3 0.0 16.201435 27.291901 19.930418
820 2 0.0 10.983648 7.835520 2.254945
821 3 0.0 10.964916 7.111883 2.915550
822 3 0.0 10.275637 7.682071 1.594965
823 3 0.0 11.850934 7.827294 1.798714
824 2 0.0 22.218981 36.342503 27.691280
825 3 0.0 22.337354 36.985160 26.960951
826 3 0.0 21.341634 36.487266 28.103233
827 3 0.0 22.915175 36.493959 28.364164
828 2 0.0 33.977304 15.301515 34.777740
829 3 0.0 33.550791 15.016440 35.589170
830 3 0.0 33.590729 16.160276 34.591488
831 2 0.0 10.478840 9.573320 34.645072
832 3 0.0 11.097932 9.128432 35.260864
833 3 0.0 10.956613 9.794767 33.818578
834 3 0.0 10.158865 10.401874 35.059215
835 2 0.0 5.120768 30.661895 26.592032
836 3 0.0 5.696474 30.115461 27.132007
837 3 0.0 4.680646 30.041895 26.005950
838 2 0.0 32.927452 10.998861 34.851282
839 3 0.0 33.389389 11.818952 35.040133
840 3 0.0 32.792183 11.012146 33.900952
841 2 0.0 31.079732 5.542616 4.491708
842 3 0.0 31.930666 5.103625 4.422433
843 3 0.0 30.811869 5.693262 3.582228
844 2 0.0 15.756777 11.613206 27.676711
845 3 0.0 15.540265 11.540709 28.629742
846 3 0.0 15.439785 10.808194 27.216416
847 3 0.0 16.729547 11.675268 27.575386
848 2 0.0 33.957202 25.323023 28.623715
849 3 0.0 33.355544 25.744983 28.006012
850 3 0.0 34.829953 25.605467 28.340640
851 2 0.0 19.627231 14.064575 18.751314
852 3 0.0 20.227671 13.490830 19.232862
853 3 0.0 20.092804 14.901766 18.688443
854 2 0.0 25.670296 17.046848 2.786785
855 3 0.0 26.102833 17.599776 2.131971
856 3 0.0 25.751896 16.155162 2.440610
857 1 0.0 5.924630 6.313639 28.825099
858 2 0.0 6.046806 6.460471 30.443869
859 2 0.0 7.326156 5.737557 28.224471
860 2 0.0 5.611387 7.772647 28.169298
861 2 0.0 4.714172 5.283882 28.462760
862 3 0.0 5.354145 5.868631 30.141302
863 3 0.0 6.890161 5.163639 28.858605
864 3 0.0 4.954988 7.460304 28.796340
865 2 0.0 12.599062 27.510578 33.175952
866 3 0.0 11.649386 27.611289 33.395890
867 3 0.0 12.699264 26.786768 32.522914
868 3 0.0 13.090807 27.274669 33.990160
869 2 0.0 28.111032 21.884430 12.609176
870 3 0.0 27.407134 22.208972 13.175568
871 3 0.0 28.911106 22.006797 13.125419
872 2 0.0 8.408023 21.328194 2.164158
873 3 0.0 9.235117 21.505049 1.710023
874 3 0.0 7.759052 21.251029 1.460964
875 2 0.0 35.958360 7.049985 13.944982
876 3 0.0 35.255273 7.702256 13.902426
877 3 0.0 36.766512 7.567897 13.960959
878 2 0.0 24.015295 11.776431 7.997318
879 3 0.0 23.356230 11.136686 7.718106
880 3 0.0 24.061202 12.405989 7.274028
881 2 0.0 22.206367 29.194961 32.355271
882 3 0.0 22.118013 29.539510 31.463599
883 3 0.0 22.108782 28.245003 32.257002
884 2 0.0 3.828159 11.204078 27.934224
885 3 0.0 3.155987 11.832850 27.661403
886 3 0.0 4.659506 11.659668 27.782899
887 2 0.0 27.713044 28.143515 0.996537
888 3 0.0 28.651836 28.128578 0.796422
889 3 0.0 27.361185 27.365037 0.558625
890 2 0.0 3.710256 36.692198 6.266610
891 3 0.0 3.525609 37.148096 5.442194
892 3 0.0 4.100778 35.857434 5.997797
893 2 0.0 1.424315 28.361246 26.333475
894 3 0.0 0.685633 28.121983 25.768938
895 3 0.0 1.950104 28.961899 25.800219
896 2 0.0 20.358500 28.893287 29.931190
897 3 0.0 19.609245 28.759361 29.313873
898 3 0.0 20.017782 28.891334 30.850051
899 3 0.0 20.770980 29.762916 29.746784
900 2 0.0 18.013426 18.758370 21.207967
901 3 0.0 17.653432 18.785900 22.097487
902 3 0.0 18.779959 19.335400 21.240568
903 2 0.0 28.275206 15.723054 14.479591
904 3 0.0 27.938388 15.677494 13.581773
905 3 0.0 29.159318 16.085477 14.386884
906 2 0.0 22.527989 37.330736 4.623563
907 3 0.0 22.244253 36.635990 5.222247
908 3 0.0 21.774644 0.333079 4.568089
909 2 0.0 13.628377 11.266226 11.449329
910 3 0.0 14.353472 10.645269 11.550565
911 3 0.0 13.415088 11.535425 12.345789
912 2 0.0 10.773645 16.221230 27.761638
913 3 0.0 11.351409 15.743417 27.162068
914 3 0.0 11.278814 16.295551 28.574584
915 2 0.0 15.951806 25.117030 35.306679
916 3 0.0 15.294796 25.168650 36.031988
917 3 0.0 15.757206 24.329579 34.756723
918 3 0.0 16.846690 25.020898 35.694415
919 2 0.0 0.993388 15.264850 23.437843
920 3 0.0 1.351188 14.588138 22.858498
921 3 0.0 1.441008 16.071185 23.171273
922 2 0.0 27.441032 16.207617 24.922257
923 3 0.0 27.523056 15.691335 24.117070
924 3 0.0 26.741779 15.773456 25.416372
925 2 0.0 33.054859 5.522447 1.129853
926 3 0.0 32.403810 5.534045 0.424445
927 3 0.0 33.416583 6.411653 1.138181
928 1 0.0 31.628033 1.020717 16.185137
929 2 0.0 32.506187 1.069608 17.557491
930 2 0.0 32.237788 37.472783 15.190166
931 2 0.0 31.688020 2.474106 15.449635
932 2 0.0 30.080138 0.656477 16.543254
933 3 0.0 31.576986 0.860449 17.677645
934 3 0.0 31.936984 37.147971 16.041996
935 3 0.0 31.316553 2.482377 16.334815
936 2 0.0 24.046482 27.899013 32.777534
937 3 0.0 24.510697 28.303299 33.514187
938 3 0.0 24.557471 28.149498 32.004392
939 2 0.0 20.661142 37.031597 36.013706
940 3 0.0 20.916738 36.106292 36.022722
941 3 0.0 20.669076 37.292504 36.937537
942 2 0.0 6.611977 4.342105 18.206008
943 3 0.0 5.707282 4.020980 18.203942
944 3 0.0 6.981440 4.015470 19.029662
945 2 0.0 3.945758 31.557879 29.580151
946 3 0.0 4.585566 31.297502 28.884989
947 3 0.0 3.378210 32.278924 29.236082
948 3 0.0 4.439784 31.886630 30.360062
949 2 0.0 35.027381 37.548631 33.378337
950 3 0.0 35.177497 0.889694 33.199474
951 3 0.0 34.309532 37.538638 34.015671
952 2 0.0 3.847808 1.650141 33.921921
953 3 0.0 3.919352 2.490812 34.379910
954 3 0.0 4.732110 1.278577 33.961299
955 1 0.0 33.569903 18.543505 1.023651
956 2 0.0 32.769661 17.333041 1.766141
957 2 0.0 32.523362 19.421658 0.134551
958 2 0.0 34.718676 17.918792 0.050535
959 2 0.0 34.267914 19.500528 2.143378
960 3 0.0 33.213007 17.947717 2.355393
961 3 0.0 32.330968 19.391043 1.074577
962 3 0.0 34.808452 17.695009 0.979761
963 2 0.0 15.061217 11.021628 14.921546
964 3 0.0 15.586239 10.195533 14.969690
965 3 0.0 14.668447 11.097160 14.026880
966 3 0.0 15.655835 11.785680 15.073383
967 2 0.0 21.093703 28.555300 16.861005
968 3 0.0 21.385320 28.772666 17.749437
969 3 0.0 21.808655 28.852613 16.293511
970 2 0.0 22.660844 1.671550 22.611225
971 3 0.0 23.610469 1.534150 22.641802
972 3 0.0 22.401037 1.363674 21.739840
973 2 0.0 13.803750 14.554232 2.906593
974 3 0.0 14.729281 14.310119 2.980083
975 3 0.0 13.817754 15.450054 2.561765
976 2 0.0 34.910019 8.186215 21.716527
977 3 0.0 35.452990 8.946478 21.420583
978 3 0.0 34.766076 7.583511 20.957298
979 3 0.0 34.042123 8.517555 22.028567
980 2 0.0 26.907615 14.666974 21.315337
981 3 0.0 27.337201 15.107801 20.578637
982 3 0.0 26.872379 15.332264 22.006530
983 2 0.0 14.654973 18.632852 27.534125
984 3 0.0 14.392397 19.555774 27.563613
985 3 0.0 14.366831 18.328105 26.670584
986 2 0.0 23.378755 3.865715 36.929117
987 3 0.0 22.542103 4.161976 36.563271
988 3 0.0 23.554119 3.032797 36.485163
989 2 0.0 30.964817 4.372818 14.199461
990 3 0.0 30.291769 3.666564 14.292261
991 3 0.0 31.098930 4.561194 13.247134
992 3 0.0 31.810016 4.059167 14.583730
993 2 0.0 26.092244 10.694446 36.559886
994 3 0.0 25.464352 11.108353 37.156570
995 3 0.0 26.899136 11.203001 36.668962
996 2 0.0 11.854588 19.111297 0.684024
997 3 0.0 11.122691 19.415435 1.260415
998 3 0.0 11.625983 18.231823 0.317058
999 3 0.0 12.669841 19.029445 1.221669
1000 2 0.0 14.671739 10.643728 5.595669
1001 3 0.0 15.612137 10.530485 5.439374
1002 3 0.0 14.432144 9.908793 6.164936
1003 2 0.0 30.656173 6.792353 27.474503
1004 3 0.0 30.787050 6.352785 28.317860
1005 3 0.0 31.544003 6.966286 27.153403
1006 1 0.0 7.137611 11.931501 29.957435
1007 2 0.0 6.298683 10.689780 30.598707
1008 2 0.0 7.151744 13.177722 31.007974
1009 2 0.0 6.432336 12.402318 28.565380
1010 2 0.0 8.667683 11.456183 29.657679
1011 3 0.0 7.215432 10.495410 30.390403
1012 3 0.0 7.544855 12.365792 31.336354
1013 3 0.0 6.732979 11.490723 28.579806
1014 2 0.0 16.198349 11.168792 32.887235
1015 3 0.0 15.849196 10.334757 33.209843
1016 3 0.0 15.424079 11.723452 32.766983
1017 2 0.0 25.195445 4.382125 25.110904
1018 3 0.0 24.285677 4.677619 25.192185
1019 3 0.0 25.707331 5.192179 25.052713
1020 2 0.0 6.740286 3.751175 26.780851
1021 3 0.0 7.048669 2.861794 26.508269
1022 3 0.0 7.484749 4.383690 26.702762
1023 3 0.0 6.450885 3.714535 27.716428
1024 2 0.0 11.596532 7.928664 25.805639
1025 3 0.0 11.048034 7.287135 26.263012
1026 3 0.0 11.250125 8.780820 26.080290
1027 2 0.0 35.423593 13.769652 29.202661
1028 3 0.0 36.286183 13.385660 29.029199
1029 3 0.0 35.557071 14.715306 29.105084
1030 1 0.0 14.925020 16.941178 13.308241
1031 2 0.0 15.194416 15.994530 12.008940
1032 2 0.0 14.352223 16.031747 14.533696
1033 2 0.0 13.832568 18.089233 12.926904
1034 2 0.0 16.320875 17.649202 13.763425
1035 3 0.0 15.968473 16.452356 12.344844
1036 3 0.0 15.221390 15.779757 14.213306
1037 3 0.0 14.634942 18.101697 12.399988
1038 2 0.0 29.625080 11.910614 0.406803
1039 3 0.0 30.511359 11.984469 0.818452
1040 3 0.0 28.954954 11.797049 1.112802
1041 3 0.0 29.609726 11.122865 37.414143
1042 2 0.0 33.404138 31.428056 20.401331
1043 3 0.0 34.165408 31.971006 20.183904
1044 3 0.0 33.084603 31.110960 19.553424
1045 2 0.0 19.395722 4.075628 31.710778
1046 3 0.0 18.959780 4.615500 32.374172
1047 3 0.0 19.722573 4.705749 31.064468
1048 2 0.0 28.266203 23.962641 0.989188
1049 3 0.0 28.868681 23.300476 1.335827
1050 3 0.0 27.820239 23.524459 0.260688
1051 2 0.0 19.649424 29.307688 18.714597
1052 3 0.0 19.390848 28.788488 17.949633
1053 3 0.0 19.453564 30.214414 18.467442
1054 2 0.0 1.073203 30.860096 9.718862
1055 3 0.0 1.099601 30.288783 8.923058
1056 3 0.0 0.251137 31.393266 9.700484
1057 3 0.0 1.844597 31.464314 9.702335
1058 2 0.0 18.128657 30.606060 0.107089
1059 3 0.0 18.448949 31.465930 37.414995
1060 3 0.0 17.547698 30.321022 36.988082
1061 2 0.0 16.309654 21.534474 37.420363
1062 3 0.0 15.364617 21.511849 37.587674
1063 3 0.0 16.507142 22.463463 37.280446
1064 1 0.0 36.374142 8.371908 3.764765
1065 2 0.0 37.142879 9.750479 4.171565
1066 2 0.0 34.770065 8.648875 3.680356
1067 2 0.0 36.670126 7.231919 4.891582
1068 2 0.0 36.913499 7.856361 2.315556
1069 3 0.0 37.401972 9.375629 3.326604
1070 3 0.0 35.304472 9.173079 3.079342
1071 3 0.0 37.448754 7.573998 4.446250
1072 2 0.0 14.918163 11.191406 22.153901
1073 3 0.0 14.101435 10.887105 22.556338
1074 3 0.0 15.401601 10.386842 21.952494
1075 2 0.0 0.918622 1.294809 27.386253
1076 3 0.0 0.258592 1.943291 27.130458
1077 3 0.0 0.470103 0.449929 27.304970
1078 2 0.0 11.665223 24.684142 20.639258
1079 3 0.0 11.585638 25.597711 20.923263
1080 3 0.0 12.292228 24.294962 21.253264
1081 1 0.0 18.483208 5.773516 8.223729
1082 2 0.0 17.464288 5.024863 7.195032
1083 2 0.0 18.031591 7.329826 8.399347
1084 2 0.0 19.999225 5.711592 7.628114
1085 2 0.0 18.437728 5.027785 9.672424
1086 3 0.0 17.499863 4.647721 8.077130
1087 3 0.0 17.370928 6.683809 8.659703
1088 3 0.0 19.591467 4.857578 7.789342
1089 1 0.0 4.981302 24.016947 32.865189
1090 2 0.0 3.737410 25.062137 32.733993
1091 2 0.0 6.213589 24.735198 33.654165
1092 2 0.0 5.475299 23.570752 31.377312
1093 2 0.0 4.498909 22.699701 33.695285
1094 3 0.0 3.539166 24.253465 33.211853
1095 3 0.0 5.394634 24.673490 34.151261
1096 3 0.0 4.561449 23.359375 31.581757
1097 2 0.0 33.027396 8.682067 7.886474
1098 3 0.0 32.914613 9.325653 8.616869
1099 3 0.0 33.045049 9.167086 7.035096
1100 3 0.0 32.265717 8.065427 7.885480
1101 2 0.0 35.056448 27.241214 6.574834
1102 3 0.0 34.489300 26.479711 6.716455
1103 3 0.0 35.164928 27.286656 5.622066
1104 2 0.0 4.935233 35.040780 32.353812
1105 3 0.0 5.376099 35.610828 32.988070
1106 3 0.0 5.491978 34.260298 32.303992
1107 2 0.0 4.909918 1.242271 19.069199
1108 3 0.0 4.023191 1.502930 19.328759
1109 3 0.0 5.366507 1.083216 19.898553
1110 1 0.0 31.167972 25.148018 34.688814
1111 2 0.0 29.755284 24.637378 35.321633
1112 2 0.0 30.880461 25.970779 33.311388
1113 2 0.0 32.115146 23.861442 34.365578
1114 2 0.0 31.920996 26.122474 35.756658
1115 3 0.0 30.266636 25.219804 35.888111
1116 3 0.0 30.470035 26.339122 34.097182
1117 3 0.0 31.863417 23.958666 35.286870
1118 2 0.0 23.201392 21.629523 35.526000
1119 3 0.0 23.395287 20.711938 35.320959
1120 3 0.0 23.119953 21.650435 36.482311
1121 2 0.0 4.695261 25.800335 17.647093
1122 3 0.0 3.800598 25.738563 17.989676
1123 3 0.0 4.749936 26.683449 17.274643
1124 1 0.0 32.516221 31.301335 33.924259
1125 2 0.0 33.120509 30.909765 32.461930
1126 2 0.0 33.165690 32.711537 34.420665
1127 2 0.0 32.881713 30.128042 34.995100
1128 2 0.0 30.896970 31.455994 33.819343
1129 3 0.0 32.167393 31.020894 32.490542
1130 3 0.0 32.674542 32.758667 33.597165
1131 3 0.0 32.354065 29.843107 34.245433
1132 2 0.0 23.125508 33.140443 4.211379
1133 3 0.0 23.551929 32.565487 3.571698
1134 3 0.0 23.396742 32.794135 5.064669
1135 2 0.0 29.473596 34.769114 5.755769
1136 3 0.0 28.852291 34.037851 5.784672
1137 3 0.0 28.921396 35.554393 5.759212
1138 2 0.0 29.400875 26.861861 28.156905
1139 3 0.0 29.235139 26.722167 29.092115
1140 3 0.0 30.357089 26.836693 28.075535
1141 2 0.0 2.256014 34.878502 30.218757
1142 3 0.0 2.728300 34.847852 29.383529
1143 3 0.0 2.055607 33.960557 30.415766
1144 1 0.0 28.522708 35.013675 1.256940
1145 2 0.0 28.734218 35.382734 2.830458
1146 2 0.0 27.849772 36.282940 0.486860
1147 2 0.0 27.541294 33.718466 1.129807
1148 2 0.0 29.965546 34.670558 0.580635
1149 3 0.0 29.538359 35.166265 2.352861
1150 3 0.0 28.699896 36.460770 0.895841
1151 3 0.0 28.351769 33.566677 1.621428
1152 2 0.0 13.835663 14.630834 20.629432
1153 3 0.0 14.287411 14.106120 21.294412
1154 3 0.0 12.914412 14.370989 20.702769
1155 1 0.0 20.828528 16.602666 22.103376
1156 2 0.0 21.243251 18.125140 21.694746
1157 2 0.0 20.785818 15.673355 20.764923
1158 2 0.0 19.358092 16.610277 22.806697
1159 2 0.0 21.926951 16.001892 23.147137
1160 3 0.0 21.840168 17.693378 22.310271
1161 3 0.0 21.637004 16.075733 20.952471
1162 3 0.0 20.025768 17.133081 23.256680
1163 3 0.0 22.095639 16.900007 22.852970
1164 2 0.0 20.660016 1.296658 30.989855
1165 3 0.0 20.121185 1.698652 31.675174
1166 3 0.0 20.026492 0.961711 30.351061
1167 1 0.0 16.765615 9.878901 17.922039
1168 2 0.0 16.775649 11.011414 19.094309
1169 2 0.0 18.230182 9.822208 17.208788
1170 2 0.0 15.634455 10.256973 16.810986
1171 2 0.0 16.422173 8.425011 18.574075
1172 3 0.0 16.580604 10.120125 19.392909
1173 3 0.0 18.229667 9.632971 18.149951
1174 3 0.0 15.300303 10.123618 17.701019
1175 2 0.0 11.980874 22.021188 23.283328
1176 3 0.0 12.026096 22.689584 23.998592
1177 3 0.0 12.781448 22.099706 22.723582
1178 3 0.0 11.189428 22.197429 22.732917
1179 2 0.0 21.748249 17.833163 5.965567
1180 3 0.0 21.552809 18.122270 5.071239
1181 3 0.0 21.748275 16.874547 5.914036
1182 2 0.0 2.700045 27.249645 7.528222
1183 3 0.0 2.516023 26.621733 8.257785
1184 3 0.0 2.563537 26.791835 6.672549
1185 3 0.0 3.633776 27.541247 7.587498
1186 2 0.0 31.113760 33.453464 22.538953
1187 3 0.0 30.414015 34.110423 22.557983
1188 3 0.0 31.667734 33.713231 21.799201
1189 2 0.0 5.240500 33.861946 11.639367
1190 3 0.0 5.798332 33.121098 11.887496
1191 3 0.0 5.856945 34.556745 11.396778
1192 2 0.0 18.569707 4.449727 36.518681
1193 3 0.0 18.114990 4.239139 37.337513
1194 3 0.0 18.060002 5.168883 36.138398
1195 2 0.0 17.439600 25.221418 37.068039
1196 3 0.0 17.099095 25.904351 0.060393
1197 3 0.0 17.434526 24.424300 0.012888
1198 1 0.0 1.341152 0.879255 9.120848
1199 2 0.0 0.346414 2.166342 9.224794
1200 2 0.0 2.819959 1.289726 9.669977
1201 2 0.0 1.451961 0.402364 7.566115
1202 2 0.0 0.746273 37.248692 10.022508
1203 3 0.0 0.069489 1.397790 9.729017
1204 3 0.0 2.110065 1.380089 10.309887
1205 3 0.0 0.566234 0.378671 7.935609
1206 2 0.0 23.312058 36.813612 20.226194
1207 3 0.0 22.898853 36.004867 19.915079
1208 3 0.0 22.773155 37.516851 19.856547
1209 2 0.0 1.561171 14.517571 26.028143
1210 3 0.0 0.787926 13.966517 25.886611
1211 3 0.0 2.217996 14.171538 25.419503
1212 2 0.0 27.193522 2.128631 17.853144
1213 3 0.0 27.022825 2.500574 16.984742
1214 3 0.0 28.135966 1.945895 17.855701
1215 2 0.0 22.467817 19.394590 3.636768
1216 3 0.0 23.266032 18.877521 3.506029
1217 3 0.0 22.747226 20.304452 3.511538
1218 1 0.0 17.816048 23.254378 21.658401
1219 2 0.0 19.229585 22.531471 21.289321
1220 2 0.0 17.797765 24.761088 21.036797
1221 2 0.0 17.652626 23.332898 23.278286
1222 2 0.0 16.584218 22.392056 21.029200
1223 3 0.0 18.447103 22.086772 20.955308
1224 3 0.0 17.898289 24.057264 20.391718
1225 3 0.0 17.734494 22.445504 22.921312
1226 2 0.0 22.438638 18.391202 35.031078
1227 3 0.0 22.007459 18.671582 34.220479
1228 3 0.0 22.165369 17.478076 35.145644
1229 2 0.0 15.327010 31.062668 0.171467
1230 3 0.0 15.285879 30.873572 1.111760
1231 3 0.0 14.876688 30.322905 37.347371
1232 2 0.0 3.200201 32.187437 10.746158
1233 3 0.0 2.711558 32.625750 11.446665
1234 3 0.0 3.850737 31.651354 11.205526
1235 2 0.0 8.683214 21.145985 19.031214
1236 3 0.0 8.168546 20.553695 18.478124
1237 3 0.0 8.480240 20.873919 19.929202
1238 2 0.0 20.771056 35.266543 8.582766
1239 3 0.0 21.094134 36.139899 8.816154
1240 3 0.0 20.149424 35.422911 7.868117
1241 2 0.0 4.363388 17.737157 28.825552
1242 3 0.0 5.176721 17.358189 29.166832
1243 3 0.0 4.182790 17.238596 28.025289
1244 2 0.0 24.414643 30.910995 36.225756
1245 3 0.0 24.951760 30.123023 36.115282
1246 3 0.0 24.764129 31.331855 37.014639
1247 2 0.0 2.015576 32.444398 17.882537
1248 3 0.0 1.333051 32.613381 18.536146
1249 3 0.0 1.533238 32.222633 17.082680
1250 2 0.0 5.557572 26.152346 27.429795
1251 3 0.0 6.204378 26.743646 27.868437
1252 3 0.0 4.672480 26.301601 27.823159
1253 3 0.0 5.821623 25.221406 27.584803
1254 2 0.0 8.475435 5.542445 24.586683
1255 3 0.0 9.316187 5.965921 24.398525
1256 3 0.0 7.835446 6.257659 24.564710
1257 2 0.0 35.710575 32.273152 7.265702
1258 3 0.0 35.534893 32.049283 6.348850
1259 3 0.0 35.014521 32.891329 7.500151
1260 2 0.0 29.689249 27.239811 3.882798
1261 3 0.0 29.740445 26.295763 4.049390
1262 3 0.0 28.784342 27.474096 4.101556
1263 2 0.0 36.336885 32.443548 26.590168
1264 3 0.0 36.136142 31.624416 27.048780
1265 3 0.0 36.819312 32.967698 27.233697
1266 1 0.0 7.158860 14.088210 2.066873
1267 2 0.0 6.140251 12.821655 1.943692
1268 2 0.0 6.450541 15.272774 2.934047
1269 2 0.0 7.516307 14.644869 0.577154
1270 2 0.0 8.528343 13.613541 2.812599
1271 3 0.0 6.976896 12.629147 2.373302
1272 3 0.0 6.558147 14.439226 3.397964
1273 3 0.0 7.760900 13.730615 0.738133
1274 2 0.0 31.613362 8.360717 5.160262
1275 3 0.0 30.929363 7.922418 4.648754
1276 3 0.0 32.074616 8.911355 4.523362
1277 2 0.0 10.917675 36.785673 34.293012
1278 3 0.0 10.132985 37.324591 34.168804
1279 3 0.0 10.585163 35.887311 34.356110
1280 2 0.0 0.035180 33.595741 35.507163
1281 3 0.0 0.397548 33.092280 36.239841
1282 3 0.0 0.767809 34.134557 35.199702
1283 1 0.0 35.851250 36.743709 11.897548
1284 2 0.0 35.119352 35.516871 12.682464
1285 2 0.0 37.255347 37.104637 12.642626
1286 2 0.0 34.878973 0.461839 11.907424
1287 2 0.0 36.151327 36.301383 10.357677
1288 3 0.0 35.333292 35.340283 11.763418
1289 3 0.0 37.191342 36.206022 12.310972
1290 3 0.0 34.509526 37.275089 11.481272
1291 2 0.0 2.773687 16.492435 36.027401
1292 3 0.0 2.262504 16.664040 35.233145
1293 3 0.0 3.672705 16.370819 35.713434
1294 2 0.0 17.689683 20.686247 5.167252
1295 3 0.0 17.844937 21.622406 5.021985
1296 3 0.0 17.819406 20.564297 6.110597
1297 2 0.0 36.450924 13.620929 7.997012
1298 3 0.0 35.804409 13.838412 7.321498
1299 3 0.0 36.397294 12.666297 8.083047
1300 2 0.0 34.474407 11.890457 14.466578
1301 3 0.0 35.423653 11.654414 14.406446
1302 3 0.0 33.946244 11.068223 14.539893
1303 3 0.0 34.212360 12.365058 13.650192
1304 2 0.0 4.089247 15.468284 10.160353
1305 3 0.0 4.425648 14.596285 10.379561
1306 3 0.0 3.240932 15.518272 10.606965
1307 2 0.0 13.094271 27.745934 5.232700
1308 3 0.0 12.618659 28.417729 5.726750
1309 3 0.0 13.780913 28.229856 4.768004
1310 1 0.0 14.971015 22.985888 6.503700
1311 2 0.0 15.447263 24.540796 6.614823
1312 2 0.0 14.590461 22.426882 7.986802
1313 2 0.0 16.181405 22.090196 5.879528
1314 2 0.0 13.664931 22.885678 5.533647
1315 3 0.0 14.679154 24.390479 6.058935
1316 3 0.0 14.071731 23.178617 7.691142
1317 3 0.0 15.867164 22.798655 5.313013
1318 2 0.0 30.270474 23.910224 7.406752
1319 3 0.0 30.048446 23.486333 6.574514
1320 3 0.0 30.612262 23.200082 7.954911
1321 1 0.0 33.109420 35.643819 14.071628
1322 2 0.0 33.147820 35.820737 15.691543
1323 2 0.0 34.136389 36.706855 13.384468
1324 2 0.0 31.597223 35.921740 13.530406
1325 2 0.0 33.556247 34.125943 13.680094
1326 3 0.0 33.398483 34.950736 15.372379
1327 3 0.0 34.543102 36.084300 13.991600
1328 3 0.0 31.677570 35.198271 14.156296
1329 2 0.0 5.134616 17.906227 31.372566
1330 3 0.0 5.283225 17.209634 30.699459
1331 3 0.0 5.563601 17.635085 32.210930
1332 3 0.0 4.171148 18.001279 31.524533
1333 2 0.0 3.240186 26.766187 3.472286
1334 3 0.0 3.896169 26.458930 4.102269
1335 3 0.0 2.847172 27.535936 3.890170
1336 2 0.0 32.590142 27.021163 23.832865
1337 3 0.0 32.993825 27.832338 23.515635
1338 3 0.0 32.779847 26.374523 23.149148
1339 2 0.0 9.741065 31.190259 21.473893
1340 3 0.0 9.593567 32.147039 21.321521
1341 3 0.0 9.848419 31.034174 22.435409
1342 3 0.0 10.562355 30.917840 21.013817
1343 2 0.0 21.326826 27.609435 34.487130
1344 3 0.0 20.798823 28.383344 34.199594
1345 3 0.0 20.729747 26.955083 34.906321
1346 3 0.0 21.989327 27.903709 35.146596
1347 2 0.0 6.659732 13.525480 19.008184
1348 3 0.0 6.585092 13.517971 18.031059
1349 3 0.0 7.568361 13.258128 19.259810
1350 3 0.0 6.023560 12.879800 19.380720
1351 1 0.0 6.354598 7.552717 35.287110
1352 2 0.0 6.119500 6.566678 36.563572
1353 2 0.0 7.811758 8.271554 35.416956
1354 2 0.0 5.188036 8.690768 35.257553
1355 2 0.0 6.299099 6.681869 33.910359
1356 3 0.0 6.102228 6.132989 35.707292
1357 3 0.0 7.834528 7.312661 35.376866
1358 3 0.0 4.873571 7.785758 35.196975
1359 2 0.0 34.863256 5.010099 1.209085
1360 3 0.0 34.810044 4.227841 0.655152
1361 3 0.0 35.088498 4.673750 2.079565
1362 2 0.0 18.503036 2.778730 10.387771
1363 3 0.0 17.991481 2.776579 9.551884
1364 3 0.0 18.844367 1.875273 10.554079
1365 3 0.0 17.908673 3.034641 11.123734
1366 2 0.0 17.856821 12.579506 23.523825
1367 3 0.0 18.025896 13.446379 23.900050
1368 3 0.0 18.426736 12.536565 22.752492
1369 1 0.0 31.258954 16.086647 8.400625
1370 2 0.0 30.413485 15.650345 9.724152
1371 2 0.0 32.601023 16.892710 8.854513
1372 2 0.0 30.338619 17.049390 7.460939
1373 2 0.0 31.682688 14.754145 7.562898
1374 3 0.0 30.704269 14.922200 9.170211
1375 3 0.0 32.534755 15.994897 9.187890
1376 3 0.0 29.981558 16.171716 7.615196
1377 1 0.0 13.099171 23.113930 15.008763
1378 2 0.0 11.947551 23.297257 16.147649
1379 2 0.0 12.410292 22.632975 13.611970
1380 2 0.0 14.174392 21.991265 15.499091
1381 2 0.0 13.864448 24.534222 14.776340
1382 3 0.0 12.450128 24.090330 15.947517
1383 3 0.0 12.103018 23.479055 13.945636
1384 3 0.0 14.093864 22.754864 16.075314
1385 2 0.0 10.350537 25.728957 1.083720
1386 3 0.0 9.480495 25.797974 1.483549
1387 3 0.0 10.176496 25.619498 0.145995
1388 2 0.0 1.389591 14.047975 1.969112
1389 3 0.0 1.893884 13.564241 1.310865
1390 3 0.0 0.473551 13.839677 1.771421
1391 2 0.0 3.581274 35.095248 3.631986
1392 3 0.0 3.792745 35.927143 3.202066
1393 3 0.0 3.923849 34.423415 3.037946
1394 2 0.0 14.257550 15.120396 17.522858
1395 3 0.0 13.817084 14.425555 17.028099
1396 3 0.0 13.879350 15.065608 18.403518
1397 2 0.0 17.753859 1.261629 17.859025
1398 3 0.0 17.724541 1.978246 18.497148
1399 3 0.0 17.338458 0.521998 18.308456
1400 2 0.0 26.213647 3.838601 4.560171
1401 3 0.0 26.858327 3.276966 4.996695
1402 3 0.0 26.127481 3.466541 3.679407
1403 2 0.0 14.150911 24.088357 30.936489
1404 3 0.0 14.464371 23.283590 30.473354
1405 3 0.0 13.375598 23.855745 31.488922
1406 3 0.0 13.878541 24.753147 30.269954
1407 2 0.0 36.512756 2.535588 28.841719
1408 3 0.0 37.222564 1.963675 29.142864
1409 3 0.0 35.871049 2.519040 29.555538
1410 2 0.0 32.683197 24.518788 5.403745
1411 3 0.0 32.443951 25.040527 4.634232
1412 3 0.0 32.122352 24.855230 6.106497
1413 2 0.0 9.267008 7.757388 17.727976
1414 3 0.0 8.395747 7.364925 17.635906
1415 3 0.0 9.123697 8.696589 17.590269
1416 1 0.0 5.183023 5.190722 11.690254
1417 2 0.0 6.190789 4.284269 12.595598
1418 2 0.0 5.950045 5.664019 10.332106
1419 2 0.0 4.722053 6.503442 12.539473
1420 2 0.0 3.869203 4.311159 11.293839
1421 3 0.0 5.386310 3.840855 12.316677
1422 3 0.0 5.875359 4.713690 10.445672
1423 3 0.0 4.489530 5.661007 12.936759
1424 2 0.0 26.821616 29.456462 10.725984
1425 3 0.0 27.352753 30.043533 11.268976
1426 3 0.0 27.462474 28.920829 10.252698
1427 2 0.0 36.175932 33.776603 9.012756
1428 3 0.0 36.583534 34.515176 9.470982
1429 3 0.0 36.852469 33.095554 9.004428
1430 2 0.0 37.453560 0.068729 34.598469
1431 3 0.0 36.965654 0.573117 33.943381
1432 3 0.0 36.988458 0.230913 35.422469
1433 2 0.0 9.821207 19.851040 24.501880
1434 3 0.0 10.754074 19.731256 24.309499
1435 3 0.0 9.369169 19.322833 23.839868
1436 2 0.0 4.366900 10.125608 21.201160
1437 3 0.0 5.143506 10.183571 21.762519
1438 3 0.0 4.681921 10.371645 20.328332
1439 2 0.0 0.990629 4.634069 32.889672
1440 3 0.0 0.064898 4.621041 32.635797
1441 3 0.0 1.391919 5.279721 32.303414
1442 2 0.0 12.196592 37.060429 30.693061
1443 3 0.0 13.044093 37.191946 30.218882
1444 3 0.0 11.562294 0.160931 30.408231
1445 3 0.0 12.353693 37.150626 31.656173
1446 2 0.0 21.413571 29.447183 6.133690
1447 3 0.0 21.268315 28.504434 6.241976
1448 3 0.0 22.110107 29.656913 6.760149
1449 2 0.0 24.558687 13.416866 25.474716
1450 3 0.0 24.329950 13.505014 24.546541
1451 3 0.0 25.514669 13.501954 25.496149
1452 1 0.0 24.397157 9.038263 34.458033
1453 2 0.0 25.969180 8.641220 34.290698
1454 2 0.0 23.636434 7.889709 35.329251
1455 2 0.0 23.705610 9.151035 32.986318
1456 2 0.0 24.277405 10.471091 35.225865
1457 3 0.0 25.806769 9.476319 34.735481
1458 3 0.0 24.360867 8.328496 35.781206
1459 3 0.0 24.438934 9.751944 33.137129
1460 2 0.0 24.522845 22.537464 31.881158
1461 3 0.0 24.752886 21.605536 31.895049
1462 3 0.0 24.413837 22.772275 32.805593
1463 2 0.0 3.704005 28.273464 11.028751
1464 3 0.0 3.367873 28.677926 10.225617
1465 3 0.0 4.636366 28.501820 11.041236
1466 2 0.0 22.214450 24.922315 17.431754
1467 3 0.0 23.105980 24.880315 17.785321
1468 3 0.0 21.650168 24.693392 18.173899
1469 1 0.0 23.901076 34.600159 23.104996
1470 2 0.0 23.430954 35.522625 24.363940
1471 2 0.0 24.502691 35.553481 21.927653
1472 2 0.0 22.620642 33.770600 22.531219
1473 2 0.0 25.050017 33.553929 23.597171
1474 3 0.0 24.109727 34.874778 24.566818
1475 3 0.0 24.964335 35.605945 22.767732
1476 3 0.0 22.840381 33.593905 23.448875
1477 2 0.0 22.511767 10.250811 20.542346
1478 3 0.0 22.848631 10.892538 19.912814
1479 3 0.0 23.236794 9.634468 20.669064
1480 2 0.0 31.270409 35.470866 34.144433
1481 3 0.0 32.212366 35.627143 34.243904
1482 3 0.0 31.061598 35.807525 33.269985
1483 2 0.0 12.105887 30.038250 34.664226
1484 3 0.0 12.776159 30.199546 33.967721
1485 3 0.0 12.508303 29.494038 35.372953
1486 3 0.0 11.353592 29.546273 34.273827
1487 2 0.0 36.417322 25.247503 15.932090
1488 3 0.0 35.736222 24.712390 15.518138
1489 3 0.0 36.208412 26.147330 15.670809
1490 2 0.0 17.867127 25.394722 25.880821
1491 3 0.0 18.228766 25.804091 26.670273
1492 3 0.0 17.390532 24.626864 26.204629
1493 2 0.0 35.963307 17.388330 33.607511
1494 3 0.0 36.155715 16.793790 32.878743
1495 3 0.0 35.737938 18.220829 33.185902
1496 2 0.0 23.379251 7.383580 7.386580
1497 3 0.0 23.425338 7.677267 6.452758
1498 3 0.0 22.464335 7.508943 7.714623
1499 3 0.0 23.987670 7.933303 7.923265
1500 2 0.0 19.601540 24.458911 37.218886
1501 3 0.0 18.907156 23.949944 36.794170
1502 3 0.0 19.567091 24.191134 0.550036
1503 1 0.0 20.458448 26.735405 21.414550
1504 2 0.0 21.140628 25.255345 21.445397
1505 2 0.0 21.522363 27.835834 21.974944
1506 2 0.0 19.126693 26.739546 22.354396
1507 2 0.0 20.044109 27.110897 19.883462
1508 3 0.0 20.864990 25.557009 20.576707
1509 3 0.0 21.810751 27.351917 21.197604
1510 3 0.0 19.107158 26.114720 21.625828
1511 1 0.0 34.451850 19.814046 20.816476
1512 2 0.0 35.207036 19.994478 19.383284
1513 2 0.0 34.249488 18.226938 21.127981
1514 2 0.0 32.996780 20.546489 20.759917
1515 2 0.0 35.354096 20.488281 21.994720
1516 3 0.0 35.672396 20.365340 20.136610
1517 3 0.0 35.161842 18.506816 21.023680
1518 3 0.0 33.748119 21.124506 20.608308
1519 2 0.0 30.390480 13.356096 33.416329
1520 3 0.0 29.830817 13.402211 32.637707
1521 3 0.0 29.777613 13.378176 34.154913
1522 2 0.0 34.882559 23.630581 20.203375
1523 3 0.0 35.313386 24.250445 20.796465
1524 3 0.0 33.964796 23.911706 20.186644
1525 2 0.0 19.870284 13.768143 33.662495
1526 3 0.0 19.740790 12.891314 34.080589
1527 3 0.0 20.703896 13.754889 33.147408
1528 3 0.0 19.941127 14.448002 34.364758
1529 1 0.0 24.688040 25.984750 22.411484
1530 2 0.0 23.308990 26.728070 22.861592
1531 2 0.0 24.825053 26.030629 20.787900
1532 2 0.0 24.656887 24.433326 22.910496
1533 2 0.0 25.961229 26.746975 23.085947
1534 3 0.0 24.112812 27.114871 23.216353
1535 3 0.0 24.782730 26.888898 21.215898
1536 3 0.0 24.592949 25.086289 23.611317
1537 2 0.0 17.133256 31.548999 33.521282
1538 3 0.0 17.961022 31.338158 33.083161
1539 3 0.0 16.819122 32.338819 33.075072
1540 2 0.0 28.411831 19.427725 15.428446
1541 3 0.0 28.765714 18.646751 14.996651
1542 3 0.0 27.637642 19.111964 15.900173
1543 2 0.0 20.698669 8.495113 1.594529
1544 3 0.0 20.834806 7.829450 2.272732
1545 3 0.0 19.903077 8.213424 1.137053
1546 2 0.0 28.274080 9.204090 14.785759
1547 3 0.0 27.379528 9.374003 14.481609
1548 3 0.0 28.835276 9.620310 14.127412
1549 2 0.0 6.041825 23.763756 26.812232
1550 3 0.0 6.963752 23.620201 27.038160
1551 3 0.0 5.902331 23.235343 26.022978
1552 2 0.0 14.518817 33.960509 31.603298
1553 3 0.0 15.010253 33.894979 30.781229
1554 3 0.0 15.178054 33.830089 32.288861
1555 2 0.0 0.143094 14.315950 15.895604
1556 3 0.0 37.452817 14.993139 16.515605
1557 3 0.0 36.915943 13.979717 15.520584
1558 2 0.0 34.639736 30.040423 3.718482
1559 3 0.0 33.959108 29.639567 4.264065
1560 3 0.0 34.296938 29.981104 2.823736
1561 2 0.0 8.130756 28.497890 16.155475
1562 3 0.0 8.362417 28.087059 17.014516
1563 3 0.0 7.167874 28.679528 16.139181
1564 3 0.0 8.348430 27.871152 15.434215
1565 2 0.0 35.053713 1.386837 16.741601
1566 3 0.0 35.286868 1.049103 17.609457
1567 3 0.0 34.132809 1.141020 16.627100
1568 2 0.0 10.085173 5.104470 26.206656
1569 3 0.0 10.775036 4.552675 26.582436
1570 3 0.0 10.095705 4.897957 25.269191
1571 2 0.0 2.972897 15.648897 13.596102
1572 3 0.0 2.349493 16.357126 13.861014
1573 3 0.0 2.475387 14.811625 13.487196
1574 3 0.0 3.640918 15.532191 14.303582
1575 2 0.0 32.478130 16.664976 25.469867
1576 3 0.0 32.585285 17.058732 26.360863
1577 3 0.0 33.271607 16.871839 24.933209
1578 3 0.0 31.691361 17.060559 25.039856
1579 1 0.0 12.267998 35.009597 15.773934
1580 2 0.0 12.753054 33.956805 14.627964
1581 2 0.0 13.319119 36.253129 15.849247
1582 2 0.0 12.214918 34.254833 17.217685
1583 2 0.0 10.784900 35.573620 15.400842
1584 3 0.0 11.884197 34.339493 14.485706
1585 3 0.0 12.889176 36.136245 14.998902
1586 3 0.0 11.643049 33.881102 16.543228
1587 1 0.0 22.732004 5.793074 11.408622
1588 2 0.0 23.005279 4.258309 10.932471
1589 2 0.0 21.847522 5.787866 12.777769
1590 2 0.0 21.919851 6.588028 10.240137
1591 2 0.0 24.155364 6.538092 11.684109
1592 3 0.0 23.794675 4.772476 11.117097
1593 3 0.0 22.694396 5.340077 12.840143
1594 3 0.0 22.776022 6.243087 9.976342
1595 2 0.0 5.374681 29.177267 16.604104
1596 3 0.0 6.100892 29.632315 17.036713
1597 3 0.0 4.905334 29.868282 16.131018
1598 2 0.0 21.714174 8.687479 26.205225
1599 3 0.0 21.458913 9.535619 26.624630
1600 3 0.0 22.643521 8.483576 26.440041
1601 3 0.0 21.645064 8.780405 25.232092
1602 2 0.0 17.853504 9.495553 24.133762
1603 3 0.0 17.444797 9.892580 24.906373
1604 3 0.0 18.684196 9.965953 24.032400
1605 2 0.0 21.781157 2.047019 0.717639
1606 3 0.0 21.946649 2.931376 0.382788
1607 3 0.0 21.432688 1.565509 37.553875
1608 2 0.0 32.950634 4.712398 6.469159
1609 3 0.0 33.107884 5.250994 5.690194
1610 3 0.0 32.362787 5.241708 7.013095
1611 2 0.0 32.044321 26.188904 21.705449
1612 3 0.0 31.615798 25.967762 20.875350
1613 3 0.0 32.834444 25.643871 21.721116
1614 1 0.0 3.618137 21.673275 23.517498
1615 2 0.0 3.791201 21.748777 25.136525
1616 2 0.0 4.015779 23.111220 22.860919
1617 2 0.0 2.069532 21.318974 23.152541
1618 2 0.0 4.596035 20.514130 22.920007
1619 3 0.0 4.334427 21.087977 24.700810
1620 3 0.0 4.718513 22.682532 23.354875
1621 3 0.0 2.522109 20.659924 23.683980
1622 2 0.0 34.987114 19.873617 28.853477
1623 3 0.0 35.730736 19.552973 29.405396
1624 3 0.0 34.142891 19.667575 29.306505
1625 3 0.0 35.007221 19.408208 27.991276
1626 2 0.0 15.053865 16.954454 19.209288
1627 3 0.0 15.603978 17.633706 19.606267
1628 3 0.0 14.572076 16.573328 19.947002
1629 2 0.0 10.811621 8.100902 7.491509
1630 3 0.0 11.326426 7.759838 6.730554
1631 3 0.0 11.332051 7.970556 8.311608
1632 3 0.0 9.975157 7.595161 7.561889
1633 2 0.0 32.230489 26.522033 17.088622
1634 3 0.0 32.496957 25.601143 17.139181
1635 3 0.0 32.144249 26.696377 16.148533
1636 2 0.0 18.138503 33.939033 28.669644
1637 3 0.0 18.384408 34.110015 29.581727
1638 3 0.0 18.905208 34.209155 28.158962
1639 2 0.0 14.229286 27.957643 23.270423
1640 3 0.0 13.885705 27.258112 23.830967
1641 3 0.0 13.686329 28.721478 23.478640
1642 2 0.0 4.158002 10.909961 10.395804
1643 3 0.0 3.686308 11.041842 11.221462
1644 3 0.0 5.079816 10.838095 10.654058
1645 2 0.0 7.425575 5.899986 31.965749
1646 3 0.0 7.814932 5.304008 32.609807
1647 3 0.0 8.169335 6.209051 31.443352
1648 2 0.0 20.708635 21.666392 22.453898
1649 3 0.0 21.196669 20.928717 22.080724
1650 3 0.0 21.314645 22.408837 22.397979
1651 2 0.0 28.557890 31.141907 2.400173
1652 3 0.0 29.253547 31.712935 2.066124
1653 3 0.0 28.176068 30.743021 1.614869
1654 2 0.0 22.277243 0.812082 31.124175
1655 3 0.0 22.461067 0.466112 32.000596
1656 3 0.0 22.866108 0.323709 30.544236
1657 2 0.0 20.179757 4.385170 21.968602
1658 3 0.0 20.215300 3.454233 21.736884
1659 3 0.0 19.248264 4.559677 22.121795
1660 1 0.0 0.592342 17.315250 5.263636
1661 2 0.0 37.537308 18.738169 4.798880
1662 2 0.0 1.126637 17.436506 6.798800
1663 2 0.0 1.838291 16.937430 4.282942
1664 2 0.0 37.047339 16.148896 5.173924
1665 3 0.0 36.933489 17.992192 4.776060
1666 3 0.0 0.187416 17.597347 6.682203
1667 3 0.0 0.990542 17.034123 3.842975
1668 2 0.0 17.305840 16.693420 8.706596
1669 3 0.0 16.978792 16.131098 8.000597
1670 3 0.0 16.641258 17.380602 8.794408
1671 1 0.0 28.947439 32.822113 31.892734
1672 2 0.0 27.425855 33.069656 32.422265
1673 2 0.0 28.960871 31.576957 30.840924
1674 2 0.0 29.913496 32.474390 33.158721
1675 2 0.0 29.489536 34.167449 31.149026
1676 3 0.0 27.824343 33.816427 31.969341
1677 3 0.0 28.408055 32.318730 30.584474
1678 3 0.0 29.483124 33.331514 33.200185
1679 2 0.0 3.476087 22.287525 9.778542
1680 3 0.0 3.416130 21.582154 10.426968
1681 3 0.0 3.700406 21.842010 8.958300
1682 2 0.0 24.895929 29.976825 27.298338
1683 3 0.0 24.121438 30.185454 27.825821
1684 3 0.0 25.591444 29.823666 27.942078
1685 2 0.0 2.177492 5.578823 27.921572
1686 3 0.0 2.296683 5.773628 28.854012
1687 3 0.0 2.965967 5.089757 27.675155
1688 2 0.0 37.509332 36.455144 1.358913
1689 3 0.0 0.395084 35.823735 1.903416
1690 3 0.0 36.630641 36.079580 1.266968
1691 2 0.0 25.129847 23.793400 5.186203
1692 3 0.0 25.384501 23.035203 4.655272
1693 3 0.0 25.833086 24.431879 5.046923
1694 2 0.0 3.401740 28.164134 22.182833
1695 3 0.0 3.645040 27.984846 23.115067
1696 3 0.0 3.537705 27.348905 21.656224
1697 3 0.0 3.984133 28.870049 21.832259
1698 1 0.0 2.798229 9.400244 24.851294
1699 2 0.0 3.559819 9.393811 26.292419
1700 2 0.0 1.537148 10.431448 24.907797
1701 2 0.0 2.258214 7.899417 24.515434
1702 2 0.0 3.837735 9.876299 23.689529
1703 3 0.0 4.102504 9.663720 25.547944
1704 3 0.0 2.394757 10.829871 25.073220
1705 3 0.0 3.208505 7.972391 24.630425
1706 1 0.0 18.459223 30.667814 11.384047
1707 2 0.0 18.114453 31.348368 12.824492
1708 2 0.0 19.883202 29.880666 11.481940
1709 2 0.0 18.557429 31.828833 10.244183
1710 2 0.0 17.281808 29.613389 10.985575
1711 3 0.0 17.468603 30.710440 12.512200
1712 3 0.0 19.204437 29.567823 12.084440
1713 3 0.0 17.708259 31.766393 10.687591
1714 2 0.0 20.095100 22.732619 33.479175
1715 3 0.0 20.691103 21.995439 33.630651
1716 3 0.0 20.289325 23.348964 34.189102
1717 2 0.0 14.659804 22.876258 25.829865
1718 3 0.0 15.036949 22.163606 25.272830
1719 3 0.0 15.353580 23.204438 26.439267
1720 3 0.0 13.920213 22.509451 26.357935
1721 1 0.0 9.709390 32.388089 2.669252
1722 2 0.0 10.862475 31.296517 2.300789
1723 2 0.0 9.680904 32.625053 4.281684
1724 2 0.0 8.258340 31.833131 2.175922
1725 2 0.0 10.035841 33.797654 1.918616
1726 3 0.0 10.977898 32.160247 1.897988
1727 3 0.0 10.514890 32.835545 3.855350
1728 3 0.0 8.909479 31.941834 1.478927
1729 2 0.0 17.933741 12.231543 31.143900
1730 3 0.0 18.191575 11.321279 30.980985
1731 3 0.0 17.943769 12.643413 30.276800
1732 2 0.0 22.135234 29.678107 2.052574
1733 3 0.0 21.474433 28.984730 2.117149
1734 3 0.0 22.328075 29.912389 2.963356
1735 2 0.0 26.964324 20.579545 36.032922
1736 3 0.0 27.434548 21.377367 35.780002
1737 3 0.0 26.608902 20.775226 36.902970
1738 2 0.0 0.626952 25.339605 31.466009
1739 3 0.0 0.045830 25.787845 30.847157
1740 3 0.0 0.045862 24.762844 31.967289
1741 1 0.0 24.352561 11.133824 14.110821
1742 2 0.0 23.825658 9.804415 14.893091
1743 2 0.0 23.412964 12.405498 14.506931
1744 2 0.0 24.277493 10.883061 12.501975
1745 2 0.0 25.894128 11.442320 14.541286
1746 3 0.0 24.730137 10.059083 15.089720
1747 3 0.0 23.866653 11.990955 15.244440
1748 3 0.0 24.842302 10.272836 12.981783
1749 3 0.0 25.503039 10.671101 14.958265
1750 1 0.0 9.110234 13.938452 14.516553
1751 2 0.0 7.829339 14.371886 15.426687
1752 2 0.0 8.617190 13.639515 12.991940
1753 2 0.0 9.790661 12.595222 15.140773
1754 2 0.0 10.203746 15.147186 14.506811
1755 3 0.0 8.525528 15.030131 15.366395
1756 3 0.0 8.447729 14.530814 13.305739
1757 3 0.0 9.772031 13.352294 15.730768
1758 1 0.0 34.392160 3.815132 33.450404
1759 2 0.0 34.243849 2.376397 32.698774
1760 2 0.0 33.085767 4.074457 34.390078
1761 2 0.0 34.504780 5.000581 32.337333
1762 2 0.0 35.734245 3.809092 34.375429
1763 3 0.0 35.012604 2.459569 33.267720
1764 3 0.0 33.593714 3.289822 34.609026
1765 3 0.0 35.195116 4.334984 32.292436
1766 2 0.0 13.256668 29.110929 25.188201
1767 3 0.0 12.483139 28.694285 25.575062
1768 3 0.0 12.993377 30.023263 25.047051
1769 1 0.0 15.513682 2.079373 35.645675
1770 2 0.0 16.375075 3.020963 36.659731
1771 2 0.0 15.217871 0.643051 36.357275
1772 2 0.0 16.360733 1.841692 34.273482
1773 2 0.0 14.101048 2.811786 35.292210
1774 3 0.0 15.523461 3.378952 36.398584
1775 3 0.0 14.867761 1.406182 36.822736
1776 3 0.0 16.157519 2.758888 34.471108
1777 2 0.0 24.434356 30.821953 12.820041
1778 3 0.0 23.538804 31.026415 12.541147
1779 3 0.0 24.578336 29.919874 12.524874
1780 2 0.0 15.727732 14.650157 25.779984
1781 3 0.0 15.535521 15.520027 26.137729
1782 3 0.0 15.053616 14.080339 26.157442
1783 2 0.0 34.858814 2.379019 13.694824
1784 3 0.0 35.173658 3.211254 13.334464
1785 3 0.0 35.571858 2.077412 14.262452
1786 2 0.0 32.475888 24.401634 11.610023
1787 3 0.0 33.098484 25.015966 11.214332
1788 3 0.0 31.839838 24.961081 12.061752
1789 2 0.0 13.584239 34.909128 21.017898
1790 3 0.0 13.318426 33.988196 21.071068
1791 3 0.0 14.423101 34.944776 21.483344
1792 2 0.0 24.396161 23.952363 13.843607
1793 3 0.0 25.045698 23.787950 14.531118
1794 3 0.0 24.835727 24.551102 13.235419
1795 2 0.0 31.896054 30.301594 10.381760
1796 3 0.0 32.217839 30.916945 11.044630
1797 3 0.0 31.806048 29.468511 10.850236
1798 2 0.0 4.804181 31.146041 34.884330
1799 3 0.0 5.668554 31.001121 35.276066
1800 3 0.0 4.508892 30.270965 34.622323
1801 2 0.0 21.142619 35.206872 34.129684
1802 3 0.0 21.223667 34.792557 33.267492
1803 3 0.0 20.420003 35.830941 34.029861
1804 1 0.0 31.873556 2.538040 8.427085
1805 2 0.0 30.314541 2.441839 7.961129
1806 2 0.0 32.841546 2.323891 7.133240
1807 2 0.0 32.182185 1.381869 9.533844
1808 2 0.0 32.155954 4.004562 9.080129
1809 3 0.0 30.568252 3.277908 8.358897
1810 3 0.0 32.243200 3.072180 7.072858
1811 3 0.0 31.499090 2.009077 9.782019
1812 2 0.0 9.054921 20.271541 4.083857
1813 3 0.0 9.932629 20.116911 4.440671
1814 3 0.0 8.672250 19.395316 3.997875
1815 2 0.0 16.637070 21.622265 9.273995
1816 3 0.0 17.483378 21.220775 9.063830
1817 3 0.0 16.687885 22.503028 8.895479
1818 2 0.0 18.142029 9.884541 28.898012
1819 3 0.0 18.970676 10.204788 28.534163
1820 3 0.0 18.175013 10.131125 29.825216
1821 2 0.0 21.216396 20.833752 27.356338
1822 3 0.0 20.502973 20.707912 27.986252
1823 3 0.0 20.810254 21.301575 26.622997
1824 2 0.0 15.983220 3.091358 28.305517
1825 3 0.0 16.169310 2.229847 27.925032
1826 3 0.0 15.909867 2.927237 29.248535
1827 2 0.0 24.480793 26.138715 4.052983
1828 3 0.0 25.030789 26.402472 4.794291
1829 3 0.0 23.817948 26.830016 3.987106
1830 2 0.0 1.358599 21.391862 3.834809
1831 3 0.0 1.017950 21.918376 3.107937
1832 3 0.0 1.894492 20.716588 3.412407
1833 2 0.0 2.234788 3.027227 22.284645
1834 3 0.0 2.612203 2.214050 21.941277
1835 3 0.0 2.888208 3.351007 22.908992
1836 2 0.0 32.452938 27.923290 30.545390
1837 3 0.0 33.166253 28.121444 29.934230
1838 3 0.0 31.695384 28.395662 30.192436
1839 2 0.0 36.410271 12.306575 21.858946
1840 3 0.0 36.520423 13.165262 22.273824
1841 3 0.0 36.825464 12.399989 20.998429
1842 2 0.0 23.620845 32.887576 9.659742
1843 3 0.0 23.026838 33.238859 8.992392
1844 3 0.0 23.847222 32.010194 9.342640
1845 2 0.0 31.028483 6.037740 33.969572
1846 3 0.0 30.648186 6.788555 33.507779
1847 3 0.0 31.757990 6.408311 34.471664
1848 2 0.0 36.689715 8.720432 17.832933
1849 3 0.0 37.090602 9.591557 17.878002
1850 3 0.0 36.030092 8.722655 18.530423
1851 2 0.0 27.278047 18.080306 35.393060
1852 3 0.0 27.764930 18.372974 36.166940
1853 3 0.0 27.561075 18.672478 34.692469
1854 1 0.0 21.779880 27.182431 12.297431
1855 2 0.0 20.523176 26.741805 13.237348
1856 2 0.0 21.333867 27.122560 10.730782
1857 2 0.0 23.027899 26.163911 12.546357
1858 2 0.0 22.234577 28.701449 12.675236
1859 3 0.0 20.856241 27.628324 13.394675
1860 3 0.0 20.822479 27.725402 11.275452
1861 3 0.0 22.734250 26.643534 13.324388
1862 2 0.0 3.486508 17.876115 19.102622
1863 3 0.0 4.015097 17.828496 19.902575
1864 3 0.0 2.627850 18.186123 19.399612
1865 2 0.0 13.173353 36.008914 0.988988
1866 3 0.0 13.441744 36.930146 0.959018
1867 3 0.0 13.611328 35.655803 1.766864
1868 2 0.0 19.548430 34.430070 1.557956
1869 3 0.0 18.957792 33.835889 2.066380
1870 3 0.0 19.287121 35.359284 1.727305
1871 3 0.0 19.444917 34.239719 0.602210
1872 2 0.0 34.767176 16.183958 5.032580
1873 3 0.0 35.276167 16.500687 5.782386
1874 3 0.0 35.362694 16.268641 4.284391
1875 2 0.0 17.316172 28.750482 4.279589
1876 3 0.0 17.055771 28.322571 5.098542
1877 3 0.0 18.275717 28.722066 4.287703
1878 2 0.0 6.932727 26.038881 9.927426
1879 3 0.0 7.110922 25.725318 10.817103
1880 3 0.0 7.500983 25.506261 9.366176
1881 2 0.0 25.694395 33.367425 16.675229
1882 3 0.0 25.796380 32.673052 17.330244
1883 3 0.0 24.911939 33.116850 16.178667
1884 1 0.0 14.868306 6.992595 35.601666
1885 2 0.0 13.671257 6.683017 34.539528
1886 2 0.0 16.099934 7.732386 34.831795
1887 2 0.0 15.395121 5.592823 36.249743
1888 2 0.0 14.306911 7.962153 36.785597
1889 3 0.0 13.425465 7.250570 35.273742
1890 3 0.0 15.262687 8.201125 34.801795
1891 3 0.0 14.467282 5.786558 36.401996
1892 1 0.0 12.618137 3.992430 29.532650
1893 2 0.0 11.284823 4.883696 29.241412
1894 2 0.0 12.321915 2.954816 30.754333
1895 2 0.0 13.850856 4.976875 29.942739
1896 2 0.0 13.014954 3.154334 28.192116
1897 3 0.0 11.589729 4.355562 28.499990
1898 3 0.0 11.753638 2.851551 29.987523
1899 3 0.0 13.479098 5.133510 29.071613
1900 2 0.0 37.487749 31.686712 15.566774
1901 3 0.0 36.940093 31.464177 16.323181
1902 3 0.0 37.278661 31.015956 14.912580
1903 1 0.0 11.394010 37.570476 35.789274
1904 2 0.0 11.988850 0.299912 37.272837
1905 2 0.0 10.851283 1.360427 35.112671
1906 2 0.0 10.165293 36.506721 35.914089
1907 2 0.0 12.570615 36.934632 34.857499
1908 3 0.0 12.619191 37.510799 36.656019
1909 3 0.0 11.784438 1.358734 35.338103
1910 3 0.0 11.010275 36.190917 36.242529
1911 2 0.0 15.432309 5.958447 20.884576
1912 3 0.0 15.806221 6.842627 20.880627
1913 3 0.0 16.194449 5.374778 20.876072
1914 2 0.0 8.795545 4.758836 5.867853
1915 3 0.0 8.325697 3.927033 5.773271
1916 3 0.0 9.657928 4.593626 5.479779
1917 2 0.0 26.128660 34.321167 5.371429
1918 3 0.0 26.539736 34.055168 6.197178
1919 3 0.0 25.185788 34.271614 5.545028
1920 2 0.0 6.433769 26.364481 2.504154
1921 3 0.0 5.613561 26.113861 2.935486
1922 3 0.0 7.122137 26.005673 3.068960
1923 2 0.0 18.780740 31.631688 21.898324
1924 3 0.0 19.471510 32.147054 21.475436
1925 3 0.0 19.230683 31.156752 22.600881
1926 2 0.0 9.481378 32.481499 33.520031
1927 3 0.0 8.863020 31.961668 33.001370
1928 3 0.0 10.343446 32.258463 33.161292
1929 1 0.0 11.098972 26.671869 18.042684
1930 2 0.0 9.661009 26.157627 17.472843
1931 2 0.0 12.270732 25.642642 17.568797
1932 2 0.0 11.049940 26.726796 19.671020
1933 2 0.0 11.414206 28.160413 17.458076
1934 3 0.0 9.926025 27.031324 17.176160
1935 3 0.0 11.785702 26.061958 16.854289
1936 3 0.0 10.408000 27.285462 19.226718
1937 1 0.0 29.842444 27.605310 13.547185
1938 2 0.0 28.610864 26.538129 13.582337
1939 2 0.0 31.225485 26.826852 13.175567
1940 2 0.0 29.991958 28.310794 15.008978
1941 2 0.0 29.541468 28.745465 12.421859
1942 3 0.0 28.514588 27.247863 12.943111
1943 3 0.0 30.535587 26.768109 12.510594
1944 3 0.0 29.143511 28.442786 14.579658
1945 2 0.0 34.776916 21.864653 31.427209
1946 3 0.0 34.488316 21.563782 32.291956
1947 3 0.0 34.310003 21.299364 30.807500
1948 2 0.0 13.622299 28.438902 20.142554
1949 3 0.0 13.004353 27.996765 20.729288
1950 3 0.0 13.957080 29.176791 20.657376
1951 2 0.0 7.186442 25.328309 15.513878
1952 3 0.0 7.092071 25.344976 14.558673
1953 3 0.0 6.737894 26.122265 15.813944
1954 2 0.0 35.572370 29.873035 31.712002
1955 3 0.0 34.908181 30.300507 32.257639
1956 3 0.0 35.151283 29.771834 30.855238
1957 2 0.0 5.800662 21.981101 0.382904
1958 3 0.0 5.683468 22.852629 37.587906
1959 3 0.0 5.976660 22.149925 1.311410
1960 2 0.0 19.176232 11.952570 12.907145
1961 3 0.0 18.951293 12.447223 13.698550
1962 3 0.0 18.460928 11.320161 12.807147
1963 2 0.0 4.365725 23.246116 2.781765
1964 3 0.0 4.386562 22.393357 3.222183
1965 3 0.0 3.674907 23.158875 2.120887
1966 2 0.0 21.003070 10.538587 5.095694
1967 3 0.0 21.151820 10.854211 6.011475
1968 3 0.0 21.350669 9.626006 5.013410
1969 3 0.0 21.489258 11.121227 4.475571
1970 2 0.0 7.566272 30.706000 4.587741
1971 3 0.0 6.881657 30.375354 4.001587
1972 3 0.0 8.233512 30.015803 4.591955
1973 2 0.0 11.523272 20.948377 8.022970
1974 3 0.0 11.782621 20.071187 7.731634
1975 3 0.0 10.678408 21.104269 7.594600
1976 1 0.0 3.845771 11.667613 35.995726
1977 2 0.0 5.245328 10.832068 35.994069
1978 2 0.0 4.157673 13.249530 36.234796
1979 2 0.0 2.885303 11.116382 37.191780
1980 2 0.0 3.094778 11.472472 34.562258
1981 3 0.0 4.735917 10.771876 35.182603
1982 3 0.0 4.564951 12.869330 35.453021
1983 3 0.0 3.129040 10.462002 36.533009
1984 2 0.0 20.172190 24.288560 31.731715
1985 3 0.0 19.261996 24.490544 31.960515
1986 3 0.0 20.126133 23.955723 30.832439
1987 2 0.0 22.363928 27.811075 28.712896
1988 3 0.0 22.951613 27.326300 28.128755
1989 3 0.0 21.924859 28.444761 28.140830
1990 2 0.0 14.066317 18.258974 16.730373
1991 3 0.0 14.635186 18.237630 15.957370
1992 3 0.0 13.178847 18.156289 16.379015
1993 2 0.0 13.339550 34.275748 9.964398
1994 3 0.0 13.036444 34.443722 9.069126
1995 3 0.0 13.400134 35.145948 10.365248
1996 1 0.0 8.220774 9.438607 26.504852
1997 2 0.0 9.365246 10.567301 26.234419
1998 2 0.0 7.030709 10.079008 27.416187
1999 2 0.0 8.882094 8.170902 27.287462
2000 2 0.0 7.605047 8.937218 25.081339
2001 3 0.0 8.947768 10.215506 25.444766
2002 3 0.0 7.177098 10.516473 26.574287
2003 3 0.0 9.266447 8.363111 26.429016
2004 2 0.0 0.138916 8.054002 30.039081
2005 3 0.0 0.407521 7.142006 30.172179
2006 3 0.0 0.536164 8.302059 29.201070
2007 2 0.0 35.068919 37.300015 0.161240
2008 3 0.0 34.280077 0.290933 0.184500
2009 3 0.0 35.235516 36.953674 1.062735
2010 3 0.0 35.843838 0.237032 37.464913
2011 1 0.0 1.206559 24.344085 14.325344
2012 2 0.0 2.558948 23.880193 15.108126
2013 2 0.0 1.612320 25.074531 12.925806
2014 2 0.0 0.368635 25.385171 15.258576
2015 2 0.0 0.286332 23.036444 14.008868
2016 3 0.0 1.956562 23.167785 14.881839
2017 3 0.0 1.909145 24.165454 13.009921
2018 3 0.0 0.505605 24.516022 15.642529
2019 2 0.0 5.540719 20.911885 32.384323
2020 3 0.0 4.814725 20.308903 32.208411
2021 3 0.0 5.928069 20.590251 33.201704
2022 2 0.0 13.657013 0.686391 16.921551
2023 3 0.0 12.723505 0.683480 17.145502
2024 3 0.0 14.105853 0.548832 17.758940
2025 1 0.0 19.388690 1.754464 25.921666
2026 2 0.0 20.150720 2.078748 27.325607
2027 2 0.0 20.323197 0.779667 25.008776
2028 2 0.0 19.110257 3.146388 25.120466
2029 2 0.0 17.970587 1.013052 26.231816
2030 3 0.0 19.301990 1.639477 27.416703
2031 3 0.0 20.071873 0.418214 25.861881
2032 3 0.0 18.703030 3.089137 25.987926
2033 3 0.0 18.487364 1.241270 27.007998
2034 1 0.0 32.393934 31.848530 16.981797
2035 2 0.0 33.438053 31.439811 15.798723
2036 2 0.0 31.752492 30.497920 17.630877
2037 2 0.0 31.202690 32.771313 16.360259
2038 2 0.0 33.182502 32.685075 18.137329
2039 3 0.0 33.821664 31.938025 16.524137
2040 3 0.0 32.707631 30.566539 17.698712
2041 3 0.0 32.087162 33.132137 16.264778
2042 2 0.0 9.838448 2.846651 21.342579
2043 3 0.0 10.554018 2.553161 21.944429
2044 3 0.0 9.132487 3.272996 21.871965
2045 3 0.0 9.465157 2.063580 20.886670
2046 2 0.0 2.306741 30.026222 23.497506
2047 3 0.0 2.056676 29.218768 23.001637
2048 3 0.0 2.642223 29.765926 24.380737
2049 3 0.0 1.511967 30.588013 23.612065
2050 2 0.0 16.474879 8.925288 2.794437
2051 3 0.0 15.803254 8.354159 2.414526
2052 3 0.0 17.301448 8.463709 2.635291
2053 2 0.0 16.584354 2.083488 7.934112
2054 3 0.0 16.422818 1.373827 8.590380
2055 3 0.0 17.410909 1.883966 7.446877
2056 3 0.0 16.691456 2.935317 8.406675
2057 2 0.0 23.503759 3.375295 32.589475
2058 3 0.0 23.798451 4.288803 32.605564
2059 3 0.0 23.505528 3.138170 31.659223
2060 2 0.0 5.921352 1.677431 4.313762
2061 3 0.0 5.513557 2.188704 3.610979
2062 3 0.0 5.218624 1.545568 4.954376
2063 2 0.0 36.711858 8.868003 7.964825
2064 3 0.0 35.776828 8.713531 7.811666
2065 3 0.0 36.970411 9.483115 7.274617
2066 2 0.0 2.969535 20.463244 1.105356
2067 3 0.0 2.402545 19.951925 1.719747
2068 3 0.0 2.752351 20.207316 0.184633
2069 3 0.0 3.908325 20.245278 1.283016
2070 2 0.0 18.477317 5.695575 3.070205
2071 3 0.0 19.024191 4.889450 2.963006
2072 3 0.0 18.116955 5.716590 3.981301
2073 3 0.0 17.732444 5.661461 2.434280
2074 2 0.0 1.645827 35.947830 3.062783
2075 3 0.0 1.154315 36.255446 3.827890
2076 3 0.0 2.336394 36.603451 2.940813
2077 2 0.0 30.161313 7.337234 6.820556
2078 3 0.0 30.444764 7.235254 5.909043
2079 3 0.0 30.950266 7.162712 7.338914
2080 2 0.0 0.111042 9.316665 14.839705
2081 3 0.0 37.375335 9.540431 15.714563
2082 3 0.0 0.659015 8.540675 14.978144
2083 2 0.0 10.091959 16.532800 34.959331
2084 3 0.0 9.863881 16.700907 34.042096
2085 3 0.0 10.936314 16.972837 35.081935
2086 2 0.0 31.924481 19.559334 10.325576
2087 3 0.0 31.458616 18.983467 9.714883
2088 3 0.0 32.223136 18.975483 11.026664
2089 2 0.0 7.807728 30.026249 18.547611
2090 3 0.0 6.877251 30.333749 18.555072
2091 3 0.0 7.850118 29.151592 18.107636
2092 3 0.0 8.119182 29.932660 19.472078
2093 2 0.0 1.562307 18.388649 25.418249
2094 3 0.0 1.961025 19.052215 24.817330
2095 3 0.0 1.959044 17.512073 25.232204
2096 3 0.0 0.598245 18.344022 25.247976
2097 2 0.0 5.047987 20.479945 30.216480
2098 3 0.0 4.900971 19.726615 30.793092
2099 3 0.0 4.202818 20.620022 29.783275
2100 2 0.0 31.720869 1.185704 27.180902
2101 3 0.0 32.512766 0.765690 26.837264
2102 3 0.0 31.086769 0.470059 27.266750
2103 2 0.0 25.136799 29.799931 30.639741
2104 3 0.0 25.613476 29.409732 31.376031
2105 3 0.0 24.498384 30.387480 31.050608
2106 2 0.0 36.257273 37.112245 18.349840
2107 3 0.0 35.662093 36.375142 18.194791
2108 3 0.0 37.019396 36.926763 17.796338
2109 2 0.0 19.203428 8.686880 33.086789
2110 3 0.0 20.046378 9.005901 32.756241
2111 3 0.0 19.074246 7.845015 32.643873
2112 2 0.0 36.713510 35.108985 4.693227
2113 3 0.0 36.376622 35.775640 4.090169
2114 3 0.0 37.431801 35.545190 5.157322
2115 2 0.0 24.715954 7.049674 28.305470
2116 3 0.0 24.359410 7.523406 29.060489
2117 3 0.0 25.306509 6.396629 28.688064
2118 2 0.0 8.909839 6.227901 8.436806
2119 3 0.0 8.564663 5.677188 7.730288
2120 3 0.0 8.164119 6.357214 9.027381
2121 2 0.0 5.479657 15.755374 17.063283
2122 3 0.0 6.050909 15.220092 17.618930
2123 3 0.0 5.721307 16.660872 17.271315
2124 1 0.0 19.364673 34.722507 15.876576
2125 2 0.0 17.977351 34.915838 15.042993
2126 2 0.0 19.510068 35.918531 16.974431
2127 2 0.0 20.628108 34.772655 14.847927
2128 2 0.0 19.343167 33.283005 16.640951
2129 3 0.0 18.048672 34.089220 15.525918
2130 3 0.0 18.731140 35.366733 17.076360
2131 3 0.0 19.992885 34.073574 14.676530
2132 2 0.0 15.768516 18.563006 35.638373
2133 3 0.0 15.039969 18.033080 35.252631
2134 3 0.0 15.387833 19.237271 36.239079
2135 3 0.0 16.249337 19.016726 34.914944
2136 1 0.0 17.538784 36.031452 23.471505
2137 2 0.0 17.591353 37.211384 24.594846
2138 2 0.0 15.986687 35.719326 23.083596
2139 2 0.0 18.231655 34.682036 24.068084
2140 2 0.0 18.345440 36.513062 22.139492
2141 3 0.0 18.044882 37.413035 23.773111
2142 3 0.0 16.273647 36.619898 22.915597
2143 3 0.0 18.807167 35.449283 24.026624
2144 2 0.0 14.600463 30.278408 4.494315
2145 3 0.0 15.023692 29.969545 3.689902
2146 3 0.0 13.660423 30.189094 4.321264
2147 2 0.0 18.738942 16.699730 10.237237
2148 3 0.0 19.333209 16.987803 10.933986
2149 3 0.0 17.905066 17.130628 10.438676
2150 2 0.0 33.969924 11.318673 24.242002
2151 3 0.0 33.757678 10.858744 23.403064
2152 3 0.0 33.407650 10.952744 24.956385
2153 3 0.0 33.773277 12.273299 24.139919
2154 2 0.0 33.114735 19.516168 23.743597
2155 3 0.0 33.552675 19.682259 24.581585
2156 3 0.0 32.707428 20.354753 23.514517
2157 2 0.0 18.819710 29.138069 33.032910
2158 3 0.0 19.265924 29.979289 33.154741
2159 3 0.0 18.429306 28.946529 33.888771
2160 1 0.0 14.540125 33.392970 25.878620
2161 2 0.0 13.906178 34.870542 26.146563
2162 2 0.0 16.098329 33.544426 25.424788
2163 2 0.0 13.700160 32.647422 24.697301
2164 2 0.0 14.455835 32.509491 27.245829
2165 3 0.0 13.896611 34.281427 26.904490
2166 3 0.0 15.891975 33.900241 26.292205
2167 3 0.0 13.185562 32.887943 25.471212
2168 1 0.0 26.766914 19.773726 24.174597
2169 2 0.0 25.153544 19.541662 24.165384
2170 2 0.0 27.186378 20.621122 25.502328
2171 2 0.0 27.204310 20.602123 22.840677
2172 2 0.0 27.523423 18.329995 24.190000
2173 3 0.0 25.678947 18.738254 24.174659
2174 3 0.0 26.755177 19.781281 25.676489
2175 3 0.0 26.775414 19.759840 22.672729
2176 2 0.0 34.876998 22.185771 11.805710
2177 3 0.0 34.291201 22.140012 11.021396
2178 3 0.0 35.465242 22.964699 11.718306
2179 3 0.0 35.426127 21.374807 11.840278
2180 1 0.0 21.142477 15.554007 2.424402
2181 2 0.0 20.485721 15.631519 0.934582
2182 2 0.0 22.665690 16.132382 2.377474
2183 2 0.0 21.165126 14.003993 2.928231
2184 2 0.0 20.253369 16.448134 3.457322
2185 3 0.0 20.021875 16.133068 1.609041
2186 3 0.0 21.986275 16.756821 2.112766
2187 3 0.0 20.292839 14.354863 2.734313
2188 3 0.0 19.935055 16.438204 2.551686
2189 1 0.0 8.147654 35.660524 30.598934
2190 2 0.0 7.603594 34.465085 31.564245
2191 2 0.0 9.357370 36.455712 31.348043
2192 2 0.0 6.931205 36.697619 30.280208
2193 2 0.0 8.698446 35.023681 29.203241
2194 3 0.0 7.948173 34.176481 30.715968
2195 3 0.0 9.516670 35.520563 31.200665
2196 3 0.0 6.778663 35.793563 29.995578
2197 2 0.0 36.913219 18.163808 30.344700
2198 3 0.0 36.153237 18.063777 29.734108
2199 3 0.0 0.115263 18.419251 29.827352
2200 3 0.0 37.083658 17.304427 30.783808
2201 2 0.0 1.736717 18.819199 27.793755
2202 3 0.0 0.917538 18.912914 28.285448
2203 3 0.0 2.423874 18.845615 28.463619
2204 1 0.0 1.069341 2.832624 18.268955
2205 2 0.0 2.141165 3.168222 19.450255
2206 2 0.0 1.864779 2.584417 16.868037
2207 2 0.0 0.041703 4.085941 18.095589
2208 2 0.0 0.229719 1.491916 18.661939
2209 3 0.0 1.601300 2.388975 19.601648
2210 3 0.0 2.098481 1.983466 17.579262
2211 3 0.0 0.041079 3.677985 18.964595
2212 2 0.0 24.916317 9.700139 4.236017
2213 3 0.0 25.607793 9.918237 3.606816
2214 3 0.0 24.756754 10.518647 4.711607
2215 2 0.0 33.710925 27.377060 1.057618
2216 3 0.0 34.443200 27.941326 0.798819
2217 3 0.0 34.128277 26.589086 1.413304
2218 2 0.0 13.477528 14.234759 34.907737
2219 3 0.0 13.762594 13.319723 34.703172
2220 3 0.0 13.102511 14.256195 35.812890
2221 3 0.0 12.783458 14.501836 34.269508
2222 2 0.0 35.572535 11.630788 33.366354
2223 3 0.0 35.463833 10.882624 33.957992
2224 3 0.0 34.765910 11.645353 32.846025
2225 2 0.0 7.277917 18.149958 26.854796
2226 3 0.0 7.409883 17.276987 26.429463
2227 3 0.0 6.935959 18.012846 27.762906
2228 3 0.0 6.617172 18.658175 26.339498
2229 2 0.0 12.557139 2.449204 24.208911
2230 3 0.0 11.978686 1.852682 24.728482
2231 3 0.0 12.419746 3.370411 24.513705
2232 3 0.0 12.310026 2.387104 23.262613
2233 2 0.0 10.200347 2.539610 1.281920
2234 3 0.0 10.942105 2.135148 1.737777
2235 3 0.0 10.290296 2.249463 0.371248
2236 2 0.0 10.000318 35.151795 12.012290
2237 3 0.0 9.158145 34.964065 12.433125
2238 3 0.0 10.316669 34.295752 11.714444
2239 2 0.0 29.079684 27.734423 24.022307
2240 3 0.0 28.734653 28.409600 23.401429
2241 3 0.0 28.431595 27.002284 24.088292
2242 3 0.0 29.189904 28.142265 24.906567
2243 2 0.0 6.791928 18.795255 5.600955
2244 3 0.0 7.642897 19.036689 5.179100
2245 3 0.0 6.227617 19.594383 5.658812
2246 3 0.0 6.968394 18.464291 6.506341
2247 2 0.0 23.344126 36.139332 7.447143
2248 3 0.0 22.816958 35.606906 8.047323
2249 3 0.0 23.848788 35.500359 6.938586
2250 1 0.0 1.597932 24.967652 26.569006
2251 2 0.0 1.807010 25.532265 28.083733
2252 2 0.0 3.044003 24.861238 25.824389
2253 2 0.0 0.632626 25.985036 25.738336
2254 2 0.0 0.908090 23.492067 26.629566
2255 3 0.0 1.403869 24.662874 28.026855
2256 3 0.0 2.957683 24.331810 26.620538
2257 3 0.0 0.236365 25.600053 26.523425
2258 2 0.0 17.791419 22.863514 34.941849
2259 3 0.0 17.055877 22.246757 34.744395
2260 3 0.0 18.642609 22.397148 34.806278
2261 3 0.0 17.728274 23.144261 35.878648
2262 2 0.0 31.440501 16.341250 3.458824
2263 3 0.0 32.281681 16.496685 3.023098
2264 3 0.0 31.147995 15.491480 3.121287
2265 1 0.0 27.424231 9.509022 19.405172
2266 2 0.0 28.268395 9.766835 20.775507
2267 2 0.0 26.680369 8.061108 19.489530
2268 2 0.0 28.439809 9.524657 18.130316
2269 2 0.0 26.308350 10.683487 19.225333
2270 3 0.0 27.585826 10.416248 20.591216
2271 3 0.0 26.430924 8.685896 20.174379
2272 3 0.0 28.416511 10.337558 18.640461
2273 2 0.0 35.918715 30.823440 35.614881
2274 3 0.0 35.062830 30.619928 35.999125
2275 3 0.0 36.021045 31.769401 35.742498
2276 2 0.0 18.012041 12.908095 5.996833
2277 3 0.0 17.959589 13.875523 6.144248
2278 3 0.0 18.597295 12.734469 5.230196
2279 3 0.0 17.115228 12.567930 5.795799
2280 2 0.0 3.856640 4.156006 25.075388
2281 3 0.0 2.931154 4.023811 24.857214
2282 3 0.0 4.083777 4.993021 24.663788
2283 2 0.0 28.373635 24.895591 22.642863
2284 3 0.0 29.060613 24.761148 23.299816
2285 3 0.0 28.770612 24.608511 21.817276
2286 2 0.0 25.869011 29.808384 4.142433
2287 3 0.0 25.769645 30.334547 3.345640
2288 3 0.0 25.241779 30.188664 4.761760
2289 2 0.0 30.011097 29.652442 4.043032
2290 3 0.0 30.061048 30.043046 4.940436
2291 3 0.0 30.003993 30.375387 3.381444
2292 3 0.0 29.178650 29.141297 3.964533
2293 2 0.0 16.023441 12.205310 23.652693
2294 3 0.0 15.744850 11.291582 23.557362
2295 3 0.0 15.908572 12.395777 24.586571
2296 2 0.0 36.465770 23.741929 5.820421
2297 3 0.0 36.427083 24.302474 6.598812
2298 3 0.0 36.188424 24.311831 5.099386
2299 1 0.0 13.747819 33.848339 34.706362
2300 2 0.0 14.122871 35.374724 34.274640
2301 2 0.0 14.844644 33.302747 35.781631
2302 2 0.0 13.758750 32.892091 33.386373
2303 2 0.0 12.265010 33.823793 35.382805
2304 3 0.0 13.260798 35.268961 34.683595
2305 3 0.0 14.358460 34.082895 36.058388
2306 3 0.0 13.132993 33.619456 33.355261
2307 2 0.0 28.368514 4.831757 24.179489
2308 3 0.0 27.639166 5.405672 23.933985
2309 3 0.0 28.805137 4.628755 23.348977
2310 2 0.0 31.062803 34.655034 9.914039
2311 3 0.0 31.980778 34.633584 9.633927
2312 3 0.0 30.599040 35.076554 9.186821
2313 2 0.0 19.296242 18.831523 6.684336
2314 3 0.0 19.220029 19.463049 7.429833
2315 3 0.0 20.231670 18.792740 6.394734
2316 3 0.0 18.745627 19.151062 5.939273
2317 2 0.0 9.152087 10.969295 1.274039
2318 3 0.0 10.004594 11.036613 1.710274
2319 3 0.0 9.294825 11.353841 0.406082
2320 2 0.0 34.230457 28.276234 31.863226
2321 3 0.0 34.436141 27.466183 32.335573
2322 3 0.0 33.293066 28.413763 32.018091
2323 1 0.0 8.953022 27.915510 33.280801
2324 2 0.0 9.651532 26.642100 32.540930
2325 2 0.0 7.517225 27.461083 33.904407
2326 2 0.0 8.721120 29.112402 32.198873
2327 2 0.0 9.922210 28.446456 34.478996
2328 3 0.0 10.158203 27.019338 33.263824
2329 3 0.0 8.276855 26.982323 34.244043
2330 3 0.0 9.635490 28.845892 32.319292
2331 2 0.0 22.736866 11.787494 0.870559
2332 3 0.0 22.182879 11.074715 0.489189
2333 3 0.0 22.381693 12.029603 1.751261
2334 3 0.0 22.694530 12.571478 0.284064
2335 2 0.0 22.020371 33.469924 11.120055
2336 3 0.0 21.625871 33.561582 11.990440
2337 3 0.0 21.357930 33.816487 10.517838
2338 1 0.0 16.467598 33.265867 4.701589
2339 2 0.0 15.402860 32.236249 5.382119
2340 2 0.0 17.806121 33.353899 5.627605
2341 2 0.0 15.792307 34.744474 4.580743
2342 2 0.0 16.869101 32.728846 3.215889
2343 3 0.0 15.694256 31.994180 4.500025
2344 3 0.0 17.602672 32.478253 5.290777
2345 3 0.0 15.330017 34.047563 4.109359
2346 2 0.0 31.062295 15.205031 36.503244
2347 3 0.0 30.307914 15.526901 37.039628
2348 3 0.0 31.122808 14.230918 36.591810
2349 3 0.0 31.888773 15.607244 36.843182
2350 2 0.0 27.227641 28.943668 17.663586
2351 3 0.0 28.114650 28.631715 17.469934
2352 3 0.0 26.683539 28.569984 16.966511
2353 2 0.0 29.326793 29.036554 29.920676
2354 3 0.0 29.465133 28.066388 29.927051
2355 3 0.0 28.944655 29.297654 29.056849
2356 3 0.0 30.192427 29.481995 30.033192
2357 2 0.0 20.399289 31.115010 24.784641
2358 3 0.0 20.850587 30.826317 25.581250
2359 3 0.0 20.038874 31.975603 25.010648
2360 2 0.0 3.362829 15.305904 33.446756
2361 3 0.0 3.383408 15.323993 32.487147
2362 3 0.0 4.110857 15.845134 33.713749
2363 2 0.0 30.308794 20.152440 29.715217
2364 3 0.0 31.178468 20.326430 29.347800
2365 3 0.0 30.483415 19.693088 30.539900
2366 2 0.0 15.605186 26.602108 37.522308
2367 3 0.0 14.819681 27.103307 37.291265
2368 3 0.0 15.357012 26.116280 0.722128
2369 2 0.0 24.763882 33.330613 29.743907
2370 3 0.0 24.181546 33.868567 29.202529
2371 3 0.0 24.539442 32.426135 29.513374
2372 2 0.0 30.843403 33.186866 13.462072
2373 3 0.0 30.640806 33.911052 14.090491
2374 3 0.0 30.054320 32.612476 13.373622
2375 3 0.0 31.585568 32.655093 13.818175
2376 2 0.0 14.277770 16.944950 37.153678
2377 3 0.0 14.955708 16.322982 37.427825
2378 3 0.0 14.199182 17.555491 0.300231
2379 2 0.0 33.983309 30.690453 29.615096
2380 3 0.0 33.295403 30.876576 30.287810
2381 3 0.0 33.760523 31.171504 28.790865
2382 3 0.0 33.993967 29.728371 29.428859
